Date,Time,Original tweet,Clean tweet,Positive,Neutral,Negative
2022-04-06,23:45,"22633) Current #Bitcoin Price is $43351 #BTC #Crypto
Indicators Daily:
RSI: 47.5
MA(20): 44612
MA(50): 41745
MA(200): 48239
Bollinger B. lower/upper: 40450/48773

#Ethereum Price is $3190 #ETH
RSI: 51.8
MA(20): 3212
MA(50): 2906
MA(200): 3487
BB: 2783/3641

#VAIOT Price: $0.052",22633 current bitcoin price is 43351 btc crypto indicators 475 44612 41745 48239 bollinger b 4045048773 ethereum price is 3190 eth 518 3212 2906 3487 27833641 vaiot 0052,0.03203354775905609,0.9343705773353577,0.03359590470790863
2022-04-06,23:45,"#Bitcoin profits flow into alts 
 alt profits flow back into BTC",bitcoin profits flow into alts alt profits flow back into btc,0.04464535415172577,0.9261066913604736,0.029247943311929703
2022-04-06,23:45,"#Bitcoin $BTC 
Price: $43,365.25

Areas of Support
Hold Above: $42,553.83

Trends
Near: DNüìâ
Short: UPüìà
Medium: UPüìà
Long: DNüìâ

Levels of interest
Short: $59,183.61
Med: $93,618.42
Long: $110,423.27",bitcoin btc 4336525 areas of support hold 4255383 trends dn up up dn levels of interest 5918361 9361842 11042327,0.8982791900634766,0.07142236083745956,0.030298452824354172
2022-04-06,23:45,"Follow us to receive Premium Signals from Top Paid Channels for FREE!!
#Celo  #CELO #BNB  #BNB #Bitcoin  #BTC #STEPN  #GMT #Polkacity  #POLC",follow us to receive premium signals from top paid channels for free celo celo bnb bnb bitcoin btc stepn gmt polkacity polc,0.1161288172006607,0.8745000958442688,0.009371097199618816
2022-04-06,23:45,"#BTC $43295  $BTC
#ETH $3182.9  $Eth
#BNB $421.82  $Bnb",btc 43295 btc eth 31829 eth bnb 42182 bnb,0.04907958209514618,0.9277831315994263,0.023137280717492104
2022-04-06,23:45,"BITCOIN FELL!

USD $43,359.20 (-0,56%)
Yesterday: -6,94%
Last 30 days: +12,89%

#bitcoin",bitcoin fell usd 4335920 056 694 last 30 1289 bitcoin,0.016551140695810318,0.07936238497495651,0.9040865898132324
2022-04-06,23:45,Don't underestimate #teamredneck! The martians are here and these guys are ready to defend planet Earth! #martiansvs #nft #metaverse #nftproject #eth #bitcoin,do not underestimate teamredneck the martians are here and these guys are ready to defend planet earth martiansvs nft metaverse nftproject eth bitcoin,0.09897712618112564,0.886904239654541,0.014118686318397522
2022-04-06,23:45,"Top 10 #Cryptocurrency Live Prices: 
(07:45 PM . Apr 06,2022)

#BTC $43312.70
#ETH $3184.57
#BNB $421.57
#DOGE $0.14
#SHIB $0.0000244807
#AXS $53.61
#MANA $2.35
#UNI $10.08
#GM $0.0000261362
#KISHU $0.0000000015

Comments! Which coins would like to be listed?",top 10 cryptocurrency live pm apr 062022 btc 4331270 eth 318457 bnb 42157 doge 014 shib 00000244807 axs 5361 mana 235 uni 1008 gm 00000261362 kishu 00000000015 comments which coins would like to be listed,0.027185289189219475,0.9317882061004639,0.04102646932005882
2022-04-06,23:45,@AltcoinGordon Just bought the #Bitcoin dip https://t.co/n7Hvq0T4RN,altcoingordon just bought the bitcoin dip,0.059726178646087646,0.9263448119163513,0.013929077424108982
2022-04-06,23:45,ProShares files with SEC for Short #bitcoin Strategy ETF By Cointelegraph https://t.co/mRylpzh0cs https://t.co/xORCtqpD85,proshares files with sec for short bitcoin strategy etf by cointelegraph,0.029737509787082672,0.9488124251365662,0.021450046449899673
2022-04-06,23:45,"@MartiniGuyYT @MOONjob8 Welcome 
We are $CULT Dao

Welcome  web3  

#wearecultdao 

#readthecultmanifesto 

@wearecultdao 

$CULT
ÔºÉBTC¬†

Never forget the 1st rule : talk about $cult üé≠",martiniguyyt moonjob8 welcome we are cult dao welcome web3 wearecultdao readthecultmanifesto wearecultdao cult btc never forget the 1st rule talk about cult,0.059612732380628586,0.9192546010017395,0.021132735535502434
2022-04-06,23:45,"Only 10% of #Bitcoin left, anyone guessing? üëÄ",only 10 of bitcoin left anyone guessing,0.02662292681634426,0.920148491859436,0.05322865769267082
2022-04-06,23:45,I recommend you a unique project. An experienced team works on a project daily. Consultants help them with this. Read the white paper and join the awesome project #hotfriescoin #StableProgressiveCoin #onlyup #Airdrop #bountycampaign #bitcoin #defi,i recommend you a unique project an experienced team works on a project daily consultants help them with this read the white paper and join the awesome project hotfriescoin stableprogressivecoin onlyup airdrop bountycampaign bitcoin defi,0.10477247089147568,0.8851416707038879,0.010085870511829853
2022-04-06,23:45,@evantan Bought a ton of #bitcoin in 2013,evantan bought a ton of bitcoin in 2013,0.1161344051361084,0.8716119527816772,0.012253589928150177
2022-04-06,23:45,"‚ÄúInflation is not an act of god or a catastrophe of elements. #Inflation is a policy.‚Äù  

Ludwig von Mises on #Bitcoin",inflation is not an act of god or a catastrophe of elements inflation is a policy ludwig von mises on bitcoin,0.03919126093387604,0.908308744430542,0.05250006169080734
2022-04-06,23:45,#BTC discount $BTCUSD,btc discount btcusd,0.04026216268539429,0.9153733849525452,0.04436440393328667
2022-04-06,23:45,"I am the oracle at predicting #bitcoin dips.

The few times I buy it goes -20% next day.

#cryptocurrency
#crypto",i am the oracle at predicting bitcoin dips the few times i buy it goes 20 next day cryptocurrency crypto,0.05712726712226868,0.9022677540779114,0.04060495272278786
2022-04-06,23:45,#Bitcoin Sell Outs,bitcoin sell outs,0.03949553519487381,0.7336041927337646,0.22690023481845856
2022-04-06,23:45,"CryptoWhale Nice thing, try to edit your tweets about #Bitcoin",cryptowhale nice thing try to edit your tweets about bitcoin,0.04363858699798584,0.932053804397583,0.02430765889585018
2022-04-06,23:45,Current #Bitcoin Price is $43313 #BTC #Crypto,current bitcoin price is 43313 btc crypto,0.020480822771787643,0.949638307094574,0.02988087572157383
2022-04-06,23:45,Join the unique project. I think that the project will achieve great success. Read white paper and join the project with great potential. Do not miss the opportunity to become part of the project. #hotfriescoin #StableProgressiveCoin #onlyup #Airdrop #bountycampaign #bitcoin,join the unique project i think that the project will achieve great success read white paper and join the project with great potential do not miss the opportunity to become part of the project hotfriescoin stableprogressivecoin onlyup airdrop bountycampaign bitcoin,0.6612357497215271,0.33016178011894226,0.008602465502917767
2022-04-06,23:45,"üöÄüöÄüöÄ $1,020,400 BTCUSD LONGED @$43,365.5 on #Binance (23:44:31 UTC) #BTC #cryptocurrency",1020400 btcusd longed 433655 on binance utc btc cryptocurrency,0.03824802488088608,0.9345749020576477,0.02717704139649868
2022-04-06,23:45,"The group is as of now functioning admirably and doing smart thoughts, so the undertaking is getting more well known networks.
#IgniteBlockchain #Ignite #IGT #blockchain #cryptocurrency #technology #bitcoin #money #crypto #Binance #BNB #cryptocurrencies #fintech @ignitechain",the group is as of now functioning admirably and doing smart thoughts so the undertaking is getting more well known networks igniteblockchain ignite igt blockchain cryptocurrency technology bitcoin money crypto binance bnb cryptocurrencies fintech ignitechain,0.5822657942771912,0.40837931632995605,0.009354940615594387
2022-04-06,23:45,Become a member of the great project. Many media outlets are already talking about the project. An experienced team and a great idea. Read white paper and join #hotfriescoin #StableProgressiveCoin #onlyup #Airdrop #bountycampaign #bitcoin #defi,become a member of the great project many media outlets are already talking about the project an experienced team and a great idea read white paper and join hotfriescoin stableprogressivecoin onlyup airdrop bountycampaign bitcoin defi,0.1746179163455963,0.8170941472053528,0.008287970907986164
2022-04-06,23:45,@zerohedge Cant see how they confiscate all #Bitcoin.. but they will confiscate All #Bitcoin not under self custody,zerohedge cant see how they confiscate all bitcoin but they will confiscate all bitcoin not under self custody,0.026467040181159973,0.945904552936554,0.02762843668460846
2022-04-06,23:45,"There will come a day when altcoins are not closely tied to #BTC . The broader market will swing less as the real players in the space emerge. Remember, there will be lots of losers but there will be those few winners that will change the game.  Who do you think they are? #Crypto",there will come a day when altcoins are not closely tied to btc the broader market will swing less as the real players in the space emerge remember there will be lots of losers but there will be those few winners that will change the game who do you think they are crypto,0.057283803820610046,0.9024161696434021,0.04030001908540726
2022-04-06,23:45,"Top 5 #crypto prices with 30m change:

üî¥ $ENS #ENS
üî¥ $LUNA #LUNA
üü¢ $HNT #HNT
üî¥ $KSM #KSM

Do you #hodl any #BTC or these #AltCoins?  29171566",top 5 crypto prices with 30m ens ens luna luna hnt hnt ksm ksm do you hodl any btc or these altcoins 29171566,0.03794218599796295,0.943030834197998,0.01902705803513527
2022-04-06,23:45,"22632) Current #Bitcoin Price is $43274 #BTC #Crypto
Indicators Daily:
RSI: 47.3
MA(20): 44609
MA(50): 41744
MA(200): 48239
Bollinger B. lower/upper: 40444/48774

#Ethereum Price is $3180 #ETH
RSI: 51.4
MA(20): 3212
MA(50): 2906
MA(200): 3487
BB: 2782/3641

#VAIOT Price: $0.053",22632 current bitcoin price is 43274 btc crypto indicators 473 44609 41744 48239 bollinger b 4044448774 ethereum price is 3180 eth 514 3212 2906 3487 27823641 vaiot 0053,0.029696274548768997,0.9306547045707703,0.03964905068278313
2022-04-06,23:45,BREAKING: #btc 42k incoming,btc 42k incoming,0.045912373811006546,0.9143584370613098,0.039729129523038864
2022-04-06,23:45,"$LUNA is now holding 35,767 #Bitcoin¬† worth $1.61 billion USD ü§ë",luna is now holding 35767 bitcoin worth 161 billion usd,0.045571617782115936,0.9410517811775208,0.013376623392105103
2022-04-06,23:45,"@BitcoinErrorLog Agreed, I am from Nepal and people there need BTC. USD is better than the national currency which has consistently lost value over the dollar but nothing beats #Bitcoin",bitcoinerrorlog agreed i am from nepal and people there need btc usd is better than the national currency which has consistently lost value over the dollar but nothing beats bitcoin,0.1221809908747673,0.1705208122730255,0.707298219203949
2022-04-06,23:45,"üöÄüöÄüöÄ $5,533,324 BTCUSDT LONGED @$43,350.00 on #Binance (23:43:51 UTC) #BTC #cryptocurrency",5533324 btcusdt longed 4335000 on binance utc btc cryptocurrency,0.032400943338871,0.9340920448303223,0.03350699692964554
2022-04-06,23:45,"üêÆ BULLWHALE! just LONGED $5,533,324 worth of #Bitcoin #BTC at $43,350 on #Binance Futures",bullwhale just longed 5533324 worth of bitcoin btc at 43350 on binance futures,0.041900862008333206,0.9014309048652649,0.05666818842291832
2022-04-06,23:45,"@FarooqAhmedX It is trying to tell the Wall Street has ""no ball ""to buy #Bitcoin.",farooqahmedx it is trying to tell the wall street has no ball to buy bitcoin,0.035259950906038284,0.8153157830238342,0.14942428469657898
2022-04-06,23:45,"@MetaWorld_Game Nice Project and to the moon üöÄüöÄüöÄ

@Adnan8727253 @AdnanRunako @AdnanRinjani 

#MetaWorld_Game #NFT #BSC #BTC",metaworldgame nice project and to the moon adnan8727253 adnanrunako adnanrinjani metaworldgame nft bsc btc,0.06286440789699554,0.9215757250785828,0.015559816733002663
2022-04-06,23:45,"@AirdropDet Massive Project blowing the air guys let‚Äôs support this beautiful project guys for more rewards @EzedinmaChibuz1 @cranepapi @Christopla360 @Kashour_Yazeed @Charles8544 

‚Ä¶

#Airdrops #SteamPad #Bitcoin¬† #blockchain #AirdropDetective #Crypto",airdropdet massive project blowing the air guys lets support this beautiful project guys for more rewards ezedinmachibuz1 cranepapi christopla360 kashouryazeed charles8544 airdrops steampad bitcoin blockchain airdropdetective crypto,0.10848673433065414,0.8776230216026306,0.013890250585973263
2022-04-06,23:45,Do kwon will buy every #Bitcoin dips!,do kwon will buy every bitcoin dips,0.08815691620111465,0.8962286710739136,0.015614421106874943
2022-04-06,23:45,"If #bitcoin didn‚Äôt dump it wouldn‚Äôt be a Miami weekend.

#bitcoin #Bullish",if bitcoin didn not dump it wouldn not be a miami weekend bitcoin bullish,0.05816399306058884,0.8687444925308228,0.07309151440858841
2022-04-06,23:45,Hope #BTC holds $42.8k‚Ä¶,hope btc holds 428k,0.03999766707420349,0.9438421726226807,0.016160137951374054
2022-04-06,23:45,"A recent survey found Bitcoin (BTC), Ether (ETH) and Dogecoin (DOGE) are the most sought-after crypto assets in the US. The organizer of the survey is Bakkt to more than 1,000 respondents. time to invest.#Bitcoin #ETH #Dogecoins #DOGE @elonmusk @IDEWAPUTUALITS1 @Tesla",a recent survey found bitcoin btc ether eth and dogecoin doge are the most soughtafter crypto assets in the us the organizer of the survey is bakkt to more than 1000 respondents time to investbitcoin eth dogecoins doge elonmusk idewaputualits1 tesla,0.11468182504177094,0.8712201118469238,0.014098093844950199
2022-04-06,23:45,"#bitcoin 40,000 $spy $442 ‚Ä¶.. mark it",bitcoin 40000 spy 442 mark it,0.03308673948049545,0.9268721342086792,0.040041178464889526
2022-04-06,23:45,If #bitcoin doesn‚Äôt hold 42.5k it‚Äôs gonna be very ugly,if bitcoin doesn not hold 425k its gonna be very ugly,0.014900753274559975,0.12639211118221283,0.858707070350647
2022-04-06,23:45,Btc going üöÄ #BTC2022 #Bitcoin,btc going btc2022 bitcoin,0.026718007400631905,0.9406353831291199,0.03264665603637695
2022-04-06,23:45,"22631) Current #Bitcoin Price is $43246 #BTC #Crypto
Indicators Daily:
RSI: 47.2
MA(20): 44607
MA(50): 41743
MA(200): 48239
Bollinger B. lower/upper: 40440/48774

#Ethereum Price is $3179 #ETH
RSI: 51.2
MA(20): 3211
MA(50): 2906
MA(200): 3487
BB: 2782/3641

#VAIOT Price: $0.052",22631 current bitcoin price is 43246 btc crypto indicators 472 44607 41743 48239 bollinger b 4044048774 ethereum price is 3179 eth 512 3211 2906 3487 27823641 vaiot 0052,0.031084222719073296,0.9323617815971375,0.036554038524627686
2022-04-06,23:45,"The world is going to shit in multiple ways, and in every avenue I can logically explain how it was caused by money manipulation. 

Without #Bitcoin the cycles repeat themselves.

Fuck NGU

I just want to pass on hope for the next generation.",the world is going to shit in multiple ways and in every avenue i can logically explain how it was caused by money manipulation without bitcoin the cycles repeat themselves fuck ngu i just want to pass on hope for the next generation,0.07127965986728668,0.9017367362976074,0.02698357403278351
2022-04-06,23:45,"#Crypto #Cryptocurrency #BTC #ETH #Solana #ADA #Bitcoin 

BTC = $43,422.29
Change = 5.19%

ETH = $3,194.75
Change = 7.02%

Solana = $1.07
Change = 9.29%

ADA = $115.53
Change = 9.38%

Follow @pricebotcrypto for hourly update!",crypto cryptocurrency btc eth solana ada bitcoin btc 4342229 change 519 eth 319475 change 702 solana 107 change 929 ada 11553 change 938 follow pricebotcrypto for hourly update,0.03311078995466232,0.9271952509880066,0.03969399631023407
2022-04-06,23:45,@fulmolightning @TheBitcoinConf The testicles will drop when #Bitcoin reaches $100K,fulmolightning thebitcoinconf the testicles will drop when bitcoin reaches 100k,0.020270314067602158,0.09426464140415192,0.885465145111084
2022-04-06,23:45,@degen_z Is $sats new #bitcoin by satoshi ser?,degenz is sats new bitcoin by satoshi ser,0.062220461666584015,0.9251635670661926,0.012615986168384552
2022-04-06,23:45,"#ETH - short alert ü§°ü•∂

Exchange     : FTX
Market         : $ETH - $PERP
Volume        : $3,391,938
Price            : $3179.6

$BTC #BTC $ETH #ETH",eth short alert exchange ftx market eth perp volume 3391938 price 31796 btc btc eth eth,0.04245442897081375,0.9376378655433655,0.019907670095562935
2022-04-06,23:45,"OVERSOLD  
 - ETH/USDT
 Price:3179.33000 
 Bollinger Bands ALERTS FifteenMinutes 
 Bollinger Bands Calculation: -4.47004
 #BTC #BCHABCTUSD #Bitcoin #RSƒ∞ #Bollinger -It is not investment advice. You can visit our profile for your own alarms. YTD. 2:42:07 AM",oversold ethusdt bollinger bands alerts fifteenminutes bollinger bands 447004 btc bchabctusd bitcoin rsi bollinger it is not investment advice you can visit our profile for your own alarms ytd am,0.024510949850082397,0.9451616406440735,0.030327407643198967
2022-04-06,23:45,@BTC_LN @BitPay Backed by #btc in Perfect Competition,btcln bitpay backed by btc in perfect competition,0.17093020677566528,0.8206747174263,0.008395048789680004
2022-04-06,23:45,BREAKING: Tennessee Titans become the first NFL team to accept #bitcoin as payment üôå,tennessee titans become the first nfl team to accept bitcoin as payment,0.1851990669965744,0.8065800070762634,0.00822091568261385
2022-04-06,23:45,‚ö†Ô∏è2013 - You missed #BTC‚ö†Ô∏è 2014 - You missed #DOGE‚ö†Ô∏è 2015 - You missed #XRP‚ö†Ô∏è 2016 - You missed #ETH‚ö†Ô∏è 2017 - You misse‚Ä¶,2013 you missed btc 2014 you missed doge 2015 you missed xrp 2016 you missed eth 2017 you misse,0.034114569425582886,0.7170536518096924,0.24883174896240234
2022-04-06,23:45,"22630) Current #Bitcoin Price is $43274 #BTC #Crypto
Indicators Daily:
RSI: 47.2
MA(20): 44607
MA(50): 41743
MA(200): 48239
Bollinger B. lower/upper: 40440/48774

#Ethereum Price is $3180 #ETH
RSI: 51.3
MA(20): 3212
MA(50): 2906
MA(200): 3487
BB: 2782/3641

#VAIOT Price: $0.052",22630 current bitcoin price is 43274 btc crypto indicators 472 44607 41743 48239 bollinger b 4044048774 ethereum price is 3180 eth 513 3212 2906 3487 27823641 vaiot 0052,0.03120705857872963,0.9303837418556213,0.03840913251042366
2022-04-06,23:45,"If anyone at #Bitcoin2022 is staying at the Nautilus and wants to have some drinks this evening I will be giving the bar proof of liver.

#Bitcoin",if anyone at bitcoin2022 is staying at the nautilus and wants to have some drinks this evening i will be giving the bar proof of liver bitcoin,0.0389312207698822,0.9313881397247314,0.02968064695596695
2022-04-06,23:45,@WallStreetSilv Use #bitcoin.  Come onnnnnn,wallstreetsilv use bitcoin come onnnnnn,0.032075490802526474,0.9455969333648682,0.022327592596411705
2022-04-06,23:45,üî¥ #BTC Liquidated Long: $33.9K at $43275.0,btc liquidated 339k at 432750,0.046966418623924255,0.764972984790802,0.18806061148643494
2022-04-06,23:45,üî¥ #BTC Liquidated Long: $68.7K at $43254.70,btc liquidated 687k at 4325470,0.03958401829004288,0.8555293083190918,0.10488663613796234
2022-04-06,23:45,üî¥ #BTC Liquidated Long: $25.3K at $43268.0,btc liquidated 253k at 432680,0.05145701766014099,0.8706191778182983,0.07792386412620544
2022-04-06,23:45,#BTC is now at $43295.67,btc is now at 4329567,0.028280289843678474,0.9272719025611877,0.04444781690835953
2022-04-06,23:45,"I¬¥m giving 0.1 #btc #bitcoin to the first 1000 people who follows and retweets!! #cryptocurrency 
Drop your wallet",im giving 01 btc bitcoin to the first 1000 people who follows and retweets cryptocurrency drop your wallet,0.023576492443680763,0.9329184889793396,0.0435049831867218
2022-04-06,23:45,"Seeing price dump as @TheBitcoinConf kicks off is akin watching a crop of freshman football players show up wide-eyed &amp; bushy-tailed to 1st day of practice, only to see coach place a couple trashcans on either end of the track &amp; tell everyone to start running. üòâ #Bitcoin22 #BTC",seeing price dump as thebitcoinconf kicks off is akin watching a crop of freshman football players show up wideeyed bushytailed to 1st day of practice only to see coach place a couple trashcans on either end of the track tell everyone to start running bitcoin22 btc,0.05604422092437744,0.9042342901229858,0.03972141072154045
2022-04-06,23:45,We all know @PeterSchiff dislikes #Bitcoin. But he has never disparaged #litecoin. I suspect he loves it like he loves Silver. Peter do the Litecoin tweet.,we all know peterschiff dislikes bitcoin but he has never disparaged litecoin i suspect he loves it like he loves silver peter do the litecoin tweet,0.027776416391134262,0.8668404817581177,0.10538306087255478
2022-04-06,23:45,Boring times in #Bitcoin it‚Äôs time to breathe &amp; üßò‚Äç‚ôÄÔ∏è!,boring times in bitcoin its time to breathe,0.09657961875200272,0.879639208316803,0.023781195282936096
2022-04-06,23:45,Is it time to buy the Dip yet ? #BTC,is it time to buy the dip yet btc,0.14600831270217896,0.8312569856643677,0.02273469790816307
2022-04-06,23:45,"22629) Current #Bitcoin Price is $43298 #BTC #Crypto
Indicators Daily:
RSI: 47.2
MA(20): 44608
MA(50): 41744
MA(200): 48239
Bollinger B. lower/upper: 40442/48774

#Ethereum Price is $3182 #ETH
RSI: 51.4
MA(20): 3212
MA(50): 2906
MA(200): 3487
BB: 2782/3641

#VAIOT Price: $0.052",22629 current bitcoin price is 43298 btc crypto indicators 472 44608 41744 48239 bollinger b 4044248774 ethereum price is 3182 eth 514 3212 2906 3487 27823641 vaiot 0052,0.030320098623633385,0.9295632243156433,0.04011670500040054
2022-04-06,23:45,@TerkehhBsc welcomworld #Bitcoin @Ubuntu_OS,terkehhbsc welcomworld bitcoin ubuntuos,0.042468659579753876,0.9369633793830872,0.020567892119288445
2022-04-06,23:45,"I'm curious on how the $BTC Conference is going?
No hate, no bad jokes, I'm really curious if it's going better than last year.

Anything exciting?
Anything new?

Only thing I don't like is I heard lots of @wef 
Folks there. 

#BTC
#Bitcoin #bitcoinconference2022",i am curious on how the btc conference is going no hate no bad jokes i am really curious if it is going better than last year anything exciting anything new only thing i do not like is i heard lots of wef folks there btc bitcoin bitcoinconference2022,0.078458271920681,0.9012037515640259,0.020337963476777077
2022-04-06,23:45,If the #Fed was a stock I would be a trillionaire. #ETH #Bitcoin @elonmusk,if the fed was a stock i would be a trillionaire eth bitcoin elonmusk,0.06579974293708801,0.9089111089706421,0.025289146229624748
2022-04-06,23:45,@SenWarren @uscapitol Baby we're crashing #bitcoin today!,senwarren uscapitol baby we are crashing bitcoin today,0.16999542713165283,0.8112787008285522,0.018725885078310966
2022-04-06,23:45,"... there,"" Novogratz told the audience.

At 15:59 UTC, #BTC is trading at $44,138, down 
nearly 4% in a day. In a month, 
it has risen almost 15%, reducing its annual losses to less than 25%.

#news #crypto #CryptoNews #economy #finanace #tokenomics #buisness #investment",there novogratz told the audience at utc btc is trading at 44138 down nearly 4 in a day in a month it has risen almost 15 reducing its annual losses to less than 25 news crypto cryptonews economy finanace tokenomics buisness investment,0.04143301397562027,0.026609500870108604,0.931957483291626
2022-04-06,23:45,"... their assets in #BTC, he said.

When asked how high #bitcoin will ever go, Novogratz replied ""a million dollars.""

""I pray that the dollar stays strong and #bitcoin does not go to infinity. If bitcoin goes to infinity, it would mean that stability in the West is no 
longer...",their assets in btc he said when asked how high bitcoin will ever go novogratz replied a million dollars i pray that the dollar stays strong and bitcoin does not go to infinity if bitcoin goes to infinity it would mean that stability in the west is no longer,0.22361129522323608,0.7246976494789124,0.05169102922081947
2022-04-06,23:45,"... he wants to preserve, Novogratz said.

""Once the #Fed takes a break, 
I think bitcoin will go to the moon,"" the investor added.

Continuing, Novogratz said of #bitcoin that ""it is much more important outside the U.S. than inside the U.S."" He argued that the US dollar has...",he wants to preserve novogratz said once the fed takes a break i think bitcoin will go to the moon the investor added continuing novogratz said of bitcoin that it is much more important outside the us than inside the us he argued that the us dollar has,0.13970668613910675,0.8274231553077698,0.032870177179574966
2022-04-06,23:45,"#Binance Futures Liquidated On:

üî¥ $AAVE Worth 562,781 USDT
üî¥ $AUDIO Worth 233,239 USDT
üî¥ $SOL Worth 287,482 USDT
üîµ $BAKE Worth 134,494 USDT

#cryptocurrency #cryptotrading #AltCoins #BTC  26109682",binance futures liquidated aave worth 562781 usdt audio worth 233239 usdt sol worth 287482 usdt bake worth 134494 usdt cryptocurrency cryptotrading altcoins btc 26109682,0.06785813719034195,0.9165197014808655,0.015622180886566639
2022-04-06,23:45,"The latest #bitcoin block 730764 with 1224 transactions was just mined by F2Pool
Total Fees:0.04307778
Block Subsidy:6.25
#Bitcoin #BTC #blockchain #analysis",the latest bitcoin block 730764 with 1224 transactions was just mined by f2pool total block bitcoin btc blockchain analysis,0.024656550958752632,0.9437426924705505,0.03160072863101959
2022-04-06,23:45,"üü© Block 730764 ‚õè ‚õè

üìÖ 6th Apr 2022, 23:38:49 GMT

üì£ 1,224 tx with a value of 29,567.657 ‚Çø ($1.28b üá∫üá∏)

üì£ distributed to 3,934 recipients üíéüôå

üì£ 19,004,781.25 ‚Çø (90.49896%) mined ‚õè

üì£ 1,995,218.75 ‚Çø remaining üí∞

#bitcoin #tictoknextblock",block 730764 6th apr 2022 gmt 1224 tx with a value of 29567657 128b distributed to 3934 recipients 1900478125 9049896 mined 199521875 remaining bitcoin tictoknextblock,0.043006349354982376,0.9307750463485718,0.026218680664896965
2022-04-06,23:45,"@CptHodl @popcornboii Start making amazing profit üí∞üíµ today from #BITCOIN investment, Join our platformüìäüì• now to make at least $2,500 BTC dailyüèÖ",cpthodl popcornboii start making amazing profit today from bitcoin investment join our platform now to make at least 2500 btc daily,0.8190088272094727,0.173191100358963,0.007800033316016197
2022-04-06,23:45,"Top 10 #Cryptocurrency Live Prices: 
(07:40 PM . Apr 06,2022)

#BTC $43378.07
#ETH $3189.63
#BNB $422.48
#DOGE $0.14
#SHIB $0.0000245323
#AXS $53.73
#MANA $2.35
#UNI $10.11
#GM $0.0000260862
#KISHU $0.0000000015

Comments! Which coins would like to be listed?",top 10 cryptocurrency live pm apr 062022 btc 4337807 eth 318963 bnb 42248 doge 014 shib 00000245323 axs 5373 mana 235 uni 1011 gm 00000260862 kishu 00000000015 comments which coins would like to be listed,0.027913564816117287,0.9301518797874451,0.0419345386326313
2022-04-06,23:45,"22628) Current #Bitcoin Price is $43311 #BTC #Crypto
Indicators Daily:
RSI: 47.4
MA(20): 44610
MA(50): 41744
MA(200): 48239
Bollinger B. lower/upper: 40447/48774

#Ethereum Price is $3183 #ETH
RSI: 51.3
MA(20): 3212
MA(50): 2906
MA(200): 3487
BB: 2782/3641

#VAIOT Price: $0.052",22628 current bitcoin price is 43311 btc crypto indicators 474 44610 41744 48239 bollinger b 4044748774 ethereum price is 3183 eth 513 3212 2906 3487 27823641 vaiot 0052,0.029831407591700554,0.9314871430397034,0.038681432604789734
2022-04-06,23:45,Whales fucking with #Bitcoin while Miami conference is on ü§£ üåô üîú üíπ,whales fucking with bitcoin while miami conference is on,0.02875770628452301,0.9079554677009583,0.06328678131103516
2022-04-06,23:45,"üöÄüöÄüöÄ $1,279,500 BTCUSD LONGED @$43,292.9 on #Binance (23:39:56 UTC) #BTC #cryptocurrency",1279500 btcusd longed 432929 on binance utc btc cryptocurrency,0.03502510115504265,0.9265133142471313,0.0384615883231163
2022-04-06,23:45,"Recipe for #bitcoin number go up;

1. Saylor stop announcing buys
2. Remove your laser eyes
3. Stop having embarassing #Bitcoin2022 style conferences",recipe for bitcoin number go up 1 saylor stop announcing buys 2 remove your laser eyes 3 stop having embarassing bitcoin2022 style conferences,0.03651660308241844,0.8863838315010071,0.07709955424070358
2022-04-06,23:45,"Yellen who was recognised for being a vocal opponent of #bitcoin is becoming less skeptical about the crypto space now.
‚Ä¢One of Israel's largest banks, Bank Leumi, will begin offering #cryptocurrencies trading.",yellen who was recognised for being a vocal opponent of bitcoin is becoming less skeptical about the crypto space now one of israel largest banks bank leumi will begin offering cryptocurrencies trading,0.16535617411136627,0.8035396337509155,0.031104212626814842
2022-04-06,23:45,"üöÄüöÄüöÄ $1,294,973 BTCUSDT LONGED @$43,300.00 on #Binance (23:39:45 UTC) #BTC #cryptocurrency",1294973 btcusdt longed 4330000 on binance utc btc cryptocurrency,0.033991362899541855,0.9350234866142273,0.03098517656326294
2022-04-06,23:45,"üëã A new block was found on the #Bitcoin network. We're at block height 730764, current #bitcoin price is $43315.02 and there are 199519372690011 #sats left to mine.",a new block was found on the bitcoin network we are at block height 730764 current bitcoin price is 4331502 and there are 199519372690011 sats left to mine,0.023738767951726913,0.9230280518531799,0.05323321744799614
2022-04-06,23:45,Current #Bitcoin Price is $43378 #BTC #Crypto,current bitcoin price is 43378 btc crypto,0.020912673324346542,0.9496835470199585,0.029403751716017723
2022-04-06,23:45,"@BitcoinMagazine Start making amazing profit üí∞üíµ today from #BITCOIN investment, Join our platformüìäüì• now to make at least $2,500 BTC dailyüèÖ",bitcoinmagazine start making amazing profit today from bitcoin investment join our platform now to make at least 2500 btc daily,0.7438600063323975,0.2483075112104416,0.007832473143935204
2022-04-06,23:45,@stablekwon You getting to buy large sums of #Bitcoin at a discount,stablekwon you getting to buy large sums of bitcoin at a discount,0.0692596584558487,0.9138494729995728,0.016890889033675194
2022-04-06,23:45,"@GoingParabolic Sorry, it‚Äôs the overwhelming shilling.  Disappointing shift in focus driven by human emotion aka @TheBitcoinConf.

Thank goodness for the #Bitcoin protocol.",goingparabolic sorry its the overwhelming shilling disappointing shift in focus driven by human emotion aka thebitcoinconf thank goodness for the bitcoin protocol,0.3189529478549957,0.6403782367706299,0.040668781846761703
2022-04-06,23:45,@Mars_Hodl @nic__carter @TheBitcoinConf he'd be forgiven from the reports of rampant shitcoinery that I've heard at the #Bitcoin Miami conference .. please don't let the @bitcoinbushbash become so infected !,marshodl niccarter thebitcoinconf he would be forgiven from the reports of rampant shitcoinery that i have heard at the bitcoin miami conference please do not let the bitcoinbushbash become so infected,0.035217516124248505,0.31191861629486084,0.6528638601303101
2022-04-06,23:45,Market tremors may have worried #crypto investors with the price of #Bitcoin falling almost 6% overnight.,market tremors may have worried crypto investors with the price of bitcoin falling almost 6 overnight,0.013275925070047379,0.016943437978625298,0.9697806239128113
2022-04-06,23:45,"Why do people keep saying there is such a thing as ‚Äúsupport‚Äù and ‚Äúresistance‚Äù with #Bitcoin?  If they exist, I‚Äôve never seen them.",why do people keep saying there is such a thing as support and resistance with bitcoin if they exist ive never seen them,0.04263269901275635,0.8354758620262146,0.12189141660928726
2022-04-06,23:45,"$BTC is only relevant anymore because it's still holding on to its ""First Mover Advantage"" bullshit from a decade ago - but make no mistake - #Bitcoin is the biggest #SHITCOIN in #CRYPTO! WHY all these alts continue to follow this fat, bloated, pointless POS is beyond me!",btc is only relevant anymore because it is still holding on to its first mover advantage bullshit from a decade ago but make no mistake bitcoin is the biggest shitcoin in crypto why all these alts continue to follow this fat bloated pointless pos is beyond me,0.057201534509658813,0.892106831073761,0.05069165676832199
2022-04-06,23:45,#bitcoin get rekt by me and @SenWarren  we rekt Bitcoin together we stand,bitcoin get rekt by me and senwarren we rekt bitcoin together we stand,0.06591422110795975,0.9183172583580017,0.015768472105264664
2022-04-06,23:45,"22627) Current #Bitcoin Price is $43319 #BTC #Crypto
Indicators Daily:
RSI: 47.3
MA(20): 44609
MA(50): 41744
MA(200): 48239
Bollinger B. lower/upper: 40445/48774

#Ethereum Price is $3185 #ETH
RSI: 51.4
MA(20): 3212
MA(50): 2906
MA(200): 3487
BB: 2782/3641

#VAIOT Price: $0.053",22627 current bitcoin price is 43319 btc crypto indicators 473 44609 41744 48239 bollinger b 4044548774 ethereum price is 3185 eth 514 3212 2906 3487 27823641 vaiot 0053,0.028824089094996452,0.9301806092262268,0.04099526256322861
2022-04-06,23:45,"$AAPL is the only company with the power to end both the equity and crypto bear markets with a single move. 

Implementing Lightning Network on Apple Pay and adding #BTC to treasury.

Then all markets go üöÄüåï",aapl is the only company with the power to end both the equity and crypto bear markets with a single move implementing lightning network on apple pay and adding btc to treasury then all markets go,0.10658028721809387,0.8836602568626404,0.00975947454571724
2022-04-06,23:45,"'I watched a three-hour documentary today about how bad #Bitcoin and especially NFTs are, to better put myself in the non crypto gamer's position.'

- @blockchaingosu, my apprentice and best real life friend since 26 years. He is gettin it!",i watched a threehour documentary today about how bad bitcoin and especially nfts are to better put myself in the non crypto gamer position blockchaingosu my apprentice and best real life friend since 26 years he is gettin it,0.10077690333127975,0.8756720423698425,0.0235510915517807
2022-04-06,23:45,"Though 
@saylor
 didn‚Äôt create the words digital monetize energy‚Ä¶how he put them together 
will live on forever.  

My poetry for you today.
#Bitcoin - Git you‚Äôself some future energy.",though saylor didn not create the words digital monetize energyhow he put them together will live on forever my poetry for you today bitcoin git youself some future energy,0.07665767520666122,0.9056832194328308,0.017659122124314308
2022-04-06,23:45,@isabellasg3 @TheBitcoinConf Twin or wifey? No one knows!! So glad you‚Äôre back for year 2!! #bitcoin to the moon! üôåüèΩ‚ù§Ô∏è‚Äçüî•,isabellasg3 thebitcoinconf twin or wifey no one knows so glad youre back for year 2 bitcoin to the moon,0.15926691889762878,0.8176711797714233,0.023061923682689667
2022-04-06,23:45,Todays short looking so good I don‚Äôt wana pull out ü§ë keep chop chop chopping #BTC,todays short looking so good i don not wana pull out keep chop chop chopping btc,0.05245533585548401,0.884708046913147,0.06283659487962723
2022-04-06,23:45,@HeroDividend Don't buy #Bitcoin.,herodividend do not buy bitcoin,0.01956559158861637,0.943744421005249,0.036689966917037964
2022-04-06,23:45,"BREAKING üí• UST stablecoin Terra buys over 5,000 #Bitcoin worth $200 MILLION üí•",breaking ust stablecoin terra buys over 5000 bitcoin worth 200 million,0.22940056025981903,0.7600604891777039,0.010539018549025059
2022-04-06,23:45,@Bitcoin going to $65k in July. #Bitcoin #HODL #Bitcoin,bitcoin going to 65k in july bitcoin hodl bitcoin,0.5342698097229004,0.43335628509521484,0.032373927533626556
2022-04-06,23:45,The project has valuable demand to developed for using best and unique and idealist ideas to groom this wonder project so hope this platform will be favorable and useful. #IKONIC #CRYPTO #BSC #BINANCE #BITCOIN,the project has valuable demand to developed for using best and unique and idealist ideas to groom this wonder project so hope this platform will be favorable and useful ikonic crypto bsc binance bitcoin,0.7686246633529663,0.22469669580459595,0.006678610574454069
2022-04-06,23:45,"‚ÄúCryptos‚Äù are companies (everything but #BTC)

#BTC is #BTC

So next year #BTC23 should be only #BTC. Nobody taking stage and ignorantly using the word ‚Äúcrypto‚Äù for #BTC or talking about other crap.

#Cryoto23 can be held in another location.

@FossGregfoss get them in line!!!",cryptos are companies everything but btc btc is btc so next year btc23 should be only btc nobody taking stage and ignorantly using the word crypto for btc or talking about other crap cryoto23 can be held in another location fossgregfoss get them in line,0.03376989811658859,0.9421195387840271,0.024110587313771248
2022-04-06,23:45,Does anyone do a #Bitcoin only conference?,does anyone do a bitcoin only conference,0.023527611047029495,0.9292523264884949,0.04722006991505623
2022-04-06,23:45,"22626) Current #Bitcoin Price is $43307 #BTC #Crypto
Indicators Daily:
RSI: 47.4
MA(20): 44611
MA(50): 41745
MA(200): 48239
Bollinger B. lower/upper: 40448/48773

#Ethereum Price is $3183 #ETH
RSI: 51.5
MA(20): 3212
MA(50): 2906
MA(200): 3487
BB: 2783/3641

#VAIOT Price: $0.052",22626 current bitcoin price is 43307 btc crypto indicators 474 44611 41745 48239 bollinger b 4044848773 ethereum price is 3183 eth 515 3212 2906 3487 27833641 vaiot 0052,0.030568750575184822,0.9318931102752686,0.037538208067417145
2022-04-06,23:45,"DOWN  
 - BTC/USDT
 Price:43302.82000 
 RSI ALERTS OneHour 
 RSI Calculation: 18.45
 #BTC #NURUB #Bitcoin #RSƒ∞ #Bollinger -It is not investment advice. You can visit our profile for your own alarms. YTD. 2:37:37 AM",down btcusdt rsi alerts onehour rsi 1845 btc nurub bitcoin rsi bollinger it is not investment advice you can visit our profile for your own alarms ytd am,0.022818593308329582,0.9401165246963501,0.03706492856144905
2022-04-06,23:45,"@uba_en @TheBinanceNFT Good luck team! I believe this is a faithful project.The projector has a lot of attractions so hopefully the project will be better in the future and will be the best.
@Sheripk1
@ronils46
@luong_master
 #UBA #Airdrops #BSC #BNB #NFT #BTC #ETH #Cryptocurrency",ubaen thebinancenft good luck team i believe this is a faithful projectthe projector has a lot of attractions so hopefully the project will be better in the future and will be the best sheripk1 ronils46 luongmaster uba airdrops bsc bnb nft btc eth cryptocurrency,0.8666430115699768,0.1253044456243515,0.008052544668316841
2022-04-06,23:45,Spot #bitcoin ETF?,spot bitcoin etf,0.045115187764167786,0.9152122735977173,0.039672527462244034
2022-04-06,23:45,#Bitcoin IS RIGHT NOW $45.8KIF BTC BOUNCES TO $47K TODAY I WILL GIVE ONE OF MY FOLLOWERS $100 IN BTCI AM SO LONG RNüöÄüöÄüöÄ,bitcoin is right now 458kif btc bounces to 47k today i will give one of my followers 100 in btci am so long rn,0.16141828894615173,0.8198069334030151,0.018774772062897682
2022-04-06,23:45,"Every time #Bitcoin comes down after I post a bearish setup, I lose a few of my coiner fans. Sad.",every time bitcoin comes down after i post a bearish setup i lose a few of my coiner fans sad,0.010848022997379303,0.047953665256500244,0.9411983489990234
2022-04-06,23:45,"why does everyone start shorting #BTC after we already dropped 10%?

finding majority have no brain",why does everyone start shorting btc after we already dropped 10 finding majority have no brain,0.029545802623033524,0.7510831952095032,0.2193710207939148
2022-04-06,23:45,"I am invested in multiple cryptos. 

#SAFEMOON
#Affinity 
#EverRise 
#EnhanceToken 
#BTC 
#LCP 
#ADA",i am invested in multiple cryptos safemoon affinity everrise enhancetoken btc lcp ada,0.07348158210515976,0.9166890978813171,0.00982934981584549
2022-04-06,23:45,"@OmaxToken If you had invested $1000 in any cryptocurrency 1 year ago, it would have been at least $10,000. Well #TRON You have deposited it, your money is only 500$ because justin is the plan of the global game #TRX is a story without a profit margin @justinsuntron #Bitcoin2022 #BTC #ETH",omaxtoken if you had invested 1000 in any cryptocurrency 1 year ago it would have been at least 10000 well tron you have deposited it your money is only 500 because justin is the plan of the global game trx is a story without a profit margin justinsuntron bitcoin2022 btc eth,0.03452331945300102,0.9384728670120239,0.027003875002264977
2022-04-06,23:45,"Crypto market Overview

Dominance :40.95%
Money exiting Alts

#Bitcoin :$43,351.00 (-5.48%)
FEAR üìâ

Total Market :$2.10T (-6.13%)
FEAR üìâ

#Market wide üö®PANICüö®
Stick to your PLAN",crypto market overview dominance money exiting alts bitcoin 548 fear total market 613 fear market wide panic stick to your plan,0.044729042798280716,0.9163303971290588,0.03894053027033806
2022-04-06,23:45,"WANTED: Blockchain Developer to upgrade codebase and staking behaviour 
 üòΩ üíé üëç üíò  #Bitcoin #StakingSince2013",blockchain developer to upgrade codebase and staking behaviour bitcoin stakingsince2013,0.6799394488334656,0.3124803602695465,0.0075801885686814785
2022-04-06,23:45,"In last 1 month, I have given short or long signal for every #btc pump or dump on Twitter publically all for free 
You don't need to join member's group to make profit",in last 1 month i have given short or long signal for every btc pump or dump on twitter publically all for free you do not need to join member group to make profit,0.03342600166797638,0.9380264282226562,0.028547536581754684
2022-04-06,23:45,"Last prices updates: 

#BTC: $43,419.376 -0.73% üíî
#ETH: $3,194.192 -0.56% üíî
#USDT: $1.000 0.00% üíö
#BNB: $423.060 -0.54% üíî
#USDC: $0.999 -0.06% üíî
#LUNA: $108.089 0.33% üíö
#SOL: $115.532 -0.42% üíî
#XRP: $0.771 -0.30% üíî
#ADA: $1.067 -1.70% üíî
#HEX: $0.131 -1.80% üíî",last prices 43419376 073 3194192 056 1000 000 423060 054 0999 006 108089 033 115532 042 0771 030 1067 170 0131 180,0.028562316671013832,0.9206734895706177,0.050764232873916626
2022-04-06,23:45,"22625) Current #Bitcoin Price is $43339 #BTC #Crypto
Indicators Daily:
RSI: 47.4
MA(20): 44611
MA(50): 41745
MA(200): 48239
Bollinger B. lower/upper: 40448/48774

#Ethereum Price is $3186 #ETH
RSI: 51.5
MA(20): 3212
MA(50): 2906
MA(200): 3487
BB: 2783/3641

#VAIOT Price: $0.052",22625 current bitcoin price is 43339 btc crypto indicators 474 44611 41745 48239 bollinger b 4044848774 ethereum price is 3186 eth 515 3212 2906 3487 27833641 vaiot 0052,0.030372867360711098,0.9323326349258423,0.037294477224349976
2022-04-06,23:45,@PhilWorthey @jameslavish @JeffBooth Great event Phil.  #btc,philworthey jameslavish jeffbooth great event phil btc,0.03555724024772644,0.9211296439170837,0.0433131642639637
2022-04-06,23:45,"#Bitcoin Halving Cycle Analysis To me, it seems like #BTC is running out of time to play out another major run before‚Ä¶",bitcoin halving cycle analysis to me it seems like btc is running out of time to play out another major run before,0.046025440096855164,0.3043857216835022,0.6495888233184814
2022-04-06,23:45,@TheRealPlanC I feel blessed to be a part of this beautiful #Btc revolution sir,therealplanc i feel blessed to be a part of this beautiful btc revolution sir,0.5980042219161987,0.3910102844238281,0.010985572822391987
2022-04-06,23:45,"Top 5 #crypto prices with 30m change:

üî¥ $C98 #C98
üî¥ $GTC #GTC
üîµ $ZIL #ZIL
üî¥ $KLAY #KLAY

Do you #hodl any #BTC or these #AltCoins?  31606649",top 5 crypto prices with 30m c98 c98 gtc gtc zil zil klay klay do you hodl any btc or these altcoins 31606649,0.034617263823747635,0.947054922580719,0.018327796831727028
2022-04-06,23:45,"The formation of such alliances as the quadripartite security dialogue and the Aukus , as well as the US sending modern weapons to regional allies, will only exacerbate regional instability and could lead to potential armed conflict.#Bucha #BTC #UCL",the formation of such alliances as the quadripartite security dialogue and the aukus as well as the us sending modern weapons to regional allies will only exacerbate regional instability and could lead to potential armed conflictbucha btc ucl,0.012952090241014957,0.05664612725377083,0.9304017424583435
2022-04-06,23:45,"@TheCryptoLark The fear of being scammed will slow you down in life. Everything involves risk, invest wisely and not greedily there are lots of investment opportunities out there. Hit me up let's start something. #Crypto #btc #ETH",thecryptolark the fear of being scammed will slow you down in life everything involves risk invest wisely and not greedily there are lots of investment opportunities out there hit me up let us start something crypto btc eth,0.042131420224905014,0.9299233555793762,0.02794525772333145
2022-04-06,23:45,"The crypto market is a real pull of the rug for those who don't study.

Stay Safe. #BTC $EGLD $ONE $ZEC $GALA $CRO",the crypto market is a real pull of the rug for those who do not study stay safe btc egld one zec gala cro,0.06904920190572739,0.9149059653282166,0.016044851392507553
2022-04-06,23:45,"@crypto Our analytical team has done a detailed analysis regarding #BTC, and its Fear and Greed Index is 55 - NEUTRAL at the moment with price of 43866.967392088829 usd, so what do you think about the current #Bitcoin state?",crypto our analytical team has done a detailed analysis regarding btc and its fear and greed index is 55 neutral at the moment with price of 43866967392088829 usd so what do you think about the current bitcoin state,0.03430428355932236,0.9220475554466248,0.0436481237411499
2022-04-06,23:45,"@BscPitbull @LunarCrush @HuobiGlobal Start making amazing profit üí∞üíµ today from #BITCOIN investment, Join our platformüìäüì• now to make at least $2,500 BTC dailyüèÖ",bscpitbull lunarcrush huobiglobal start making amazing profit today from bitcoin investment join our platform now to make at least 2500 btc daily,0.7184308171272278,0.2737008035182953,0.007868446409702301
2022-04-06,23:45,"22624) Current #Bitcoin Price is $43356 #BTC #Crypto
Indicators Daily:
RSI: 47.5
MA(20): 44612
MA(50): 41745
MA(200): 48239
Bollinger B. lower/upper: 40450/48773

#Ethereum Price is $3188 #ETH
RSI: 51.6
MA(20): 3212
MA(50): 2906
MA(200): 3487
BB: 2783/3641

#VAIOT Price: $0.052",22624 current bitcoin price is 43356 btc crypto indicators 475 44612 41745 48239 bollinger b 4045048773 ethereum price is 3188 eth 516 3212 2906 3487 27833641 vaiot 0052,0.031197266653180122,0.9349523782730103,0.03385026752948761
2022-04-06,23:45,"@AirdropStario good project, hopefully in the future it can be even more successful for the team
@annasrsyd 
@echa_renatha 
@Ivanherdiana4 
#cryptocurrency #Airdrop #BSC #bitcoin #USDT #WINDMILL #AWMILL #Airdropstario",airdropstario good project hopefully in the future it can be even more successful for the team annasrsyd echarenatha ivanherdiana4 cryptocurrency airdrop bsc bitcoin usdt windmill awmill airdropstario,0.772193431854248,0.22090552747249603,0.006901110988110304
2022-04-06,23:45,"@HuobiGlobal @pandagirltoken #pandagirl #nft #nftart #giveaway #BTC #ADA #ETH soon minit nft 29.04 and colsed zero""s",huobiglobal pandagirltoken pandagirl nft nftart giveaway btc ada eth soon minit nft 2904 and colsed zeros,0.06133345142006874,0.9130865335464478,0.025580037385225296
2022-04-06,23:45,"@MMCrypto not still , discount is 22k #btc",mmcrypto not still discount is 22k btc,0.09336967021226883,0.889775276184082,0.016855042427778244
2022-04-06,23:45,"Red market + missed launch cope of the people hit different jeez. Toxic AF. 

btw sleeping on the street now because I'm all in on a #btc long, once I nailed it I will buy back house, wife and car.",red market missed launch cope of the people hit different jeez toxic af btw sleeping on the street now because i am all in on a btc long once i nailed it i will buy back house wife and car,0.039734192192554474,0.8964904546737671,0.06377533823251724
2022-04-06,23:45,"@MetawarOfficial Good project
#SANTOS #bitcoin #MINA
@cautionmekus 
@ezeh_kanayo 
@udayaAnna",metawarofficial good project santos bitcoin mina cautionmekus ezehkanayo udayaanna,0.09509329497814178,0.8859554529190063,0.01895124278962612
2022-04-06,23:45,@DelCrxpto This is great news for all @EFTFanToken holders as our new rewards are #Bitcoin,delcrxpto this is great news for all eftfantoken holders as our new rewards are bitcoin,0.9055683016777039,0.08491810411214828,0.00951363518834114
2022-04-06,23:45,üî¥ #BTC Liquidated Long: $37.3K at $43387.0,btc liquidated 373k at 433870,0.033275946974754333,0.8831184506416321,0.08360559493303299
2022-04-06,23:45,üî¥ #BTC Liquidated Long: $30.4K at $43388.0,btc liquidated 304k at 433880,0.04539646580815315,0.8364057540893555,0.11819774657487869
2022-04-06,23:45,üî¥ #BTC Liquidated Long: $34.7K at $43386.0,btc liquidated 347k at 433860,0.040861986577510834,0.8699367642402649,0.08920125663280487
2022-04-06,23:45,üî¥ #BTC Liquidated Long: $27.3K at $43392.0,btc liquidated 273k at 433920,0.0425768606364727,0.8796230554580688,0.07780010998249054
2022-04-06,23:45,üî¥ #BTC Liquidated Long: $50K at $43390.0,btc liquidated 50k at 433900,0.03595191612839699,0.7355390191078186,0.22850903868675232
2022-04-06,23:45,#BNBcoins future is on our hands. Hold on to it. Announcement of the next coin to be pumped will be done on telegram soon. Link is provided in the profile description #cryptopump #btc #coinpump #USDT #BNBcoins #Eth,bnbcoins future is on our hands hold on to it announcement of the next coin to be pumped will be done on telegram soon link is provided in the profile description cryptopump btc coinpump usdt bnbcoins eth,0.0380994938313961,0.945794403553009,0.016106149181723595
2022-04-06,23:45,"@BitcoinMagazine What do you think about #Bitcoin state at the moment, because its Fear and Greed index is 55 - NEUTRAL with price of 43866.829245714692 usd? Our analytical team has done detailed #BTC research, but we want to hear your opinion too.",bitcoinmagazine what do you think about bitcoin state at the moment because its fear and greed index is 55 neutral with price of 43866829245714692 usd our analytical team has done detailed btc research but we want to hear your opinion too,0.04170285910367966,0.9264962077140808,0.03180094063282013
2022-04-06,23:45,"@galactic_awake There‚Äôs no compare with this project. This project is really well and strong. I love this project and the projector peoples.üíû

@MdWahid96537670 
@mdridoyparves1
@MDARFANULISLAM8

#Airdrops #Bitcoin #AwakeInTheGalactic #AirdropDet #Crypto #Blockchain",galacticawake theres no compare with this project this project is really well and strong i love this project and the projector peoples mdwahid96537670 mdridoyparves1 mdarfanulislam8 airdrops bitcoin awakeinthegalactic airdropdet crypto blockchain,0.1516665667295456,0.8383923768997192,0.009941046126186848
2022-04-06,23:45,#bitcoin Price prediction 42.5K Bitcoin is not a hedge you're not Bitcoin,bitcoin price prediction 425k bitcoin is not a hedge you are not bitcoin,0.032737791538238525,0.9323121309280396,0.03495003655552864
2022-04-06,23:45,@CashApp I will be happy with anything offered by this #bitcoin buffet! Thank you @CashApp $vashoden,cashapp i will be happy with anything offered by this bitcoin buffet thank you cashapp vashoden,0.25309935212135315,0.7376533150672913,0.009247340261936188
2022-04-06,23:45,"@HuobiGlobal Start making amazing profit üí∞üíµ today from #BITCOIN investment, Join our platformüìäüì• now to make at least $2,500 BTC dailyüèÖ",huobiglobal start making amazing profit today from bitcoin investment join our platform now to make at least 2500 btc daily,0.7809603810310364,0.21114139258861542,0.007898220792412758
2022-04-06,23:45,&lt;&lt;#BITCOIN DUMPING: IT‚Äôs A TRAP!&gt;&gt; - @MMCrypto,ltltbitcoin its a trapgtgt mmcrypto,0.060006190091371536,0.9205871224403381,0.01940665766596794
2022-04-06,23:45,"Be careful - I have my bullish scenario - but max pain is required

IMO the pain becomes too great to overcome at 42.2k - and #BTC fails",be careful i have my bullish scenario but max pain is required imo the pain becomes too great to overcome at 422k and btc fails,0.032892655581235886,0.15468920767307281,0.8124182224273682
2022-04-06,23:45,"@AirdropDet continue to support until the moon don't give upDefinitely going to the moonüöÄüöÄüöÄ

#Airdrops #AwakeInTheGalactic #Bitcoin",airdropdet continue to support until the moon do not give updefinitely going to the moon airdrops awakeinthegalactic bitcoin,0.1295088231563568,0.8590047359466553,0.011486456729471684
2022-04-06,23:45,"Top 10 #Cryptocurrency Live Prices: 
(07:35 PM . Apr 06,2022)

#BTC $43480.47
#ETH $3200.43
#BNB $423.85
#DOGE $0.14
#SHIB $0.0000246464
#AXS $54.04
#MANA $2.37
#UNI $10.15
#GM $0.0000261255
#KISHU $0.0000000015

Comments! Which coins would like to be listed?",top 10 cryptocurrency live pm apr 062022 btc 4348047 eth 320043 bnb 42385 doge 014 shib 00000246464 axs 5404 mana 237 uni 1015 gm 00000261255 kishu 00000000015 comments which coins would like to be listed,0.026595983654260635,0.9314991235733032,0.041904889047145844
2022-04-06,23:45,"22623) Current #Bitcoin Price is $43376 #BTC #Crypto
Indicators Daily:
RSI: 47.6
MA(20): 44613
MA(50): 41746
MA(200): 48239
Bollinger B. lower/upper: 40453/48773

#Ethereum Price is $3190 #ETH
RSI: 51.8
MA(20): 3212
MA(50): 2906
MA(200): 3487
BB: 2783/3641

#VAIOT Price: $0.053",22623 current bitcoin price is 43376 btc crypto indicators 476 44613 41746 48239 bollinger b 4045348773 ethereum price is 3190 eth 518 3212 2906 3487 27833641 vaiot 0053,0.030728455632925034,0.9296150207519531,0.039656538516283035
2022-04-06,23:45,"@BitcoinMagazine Give me a BNB or ETH gift to build a good life. 

My wallet address üëáüëáüëáüëá

0x75E49461BFE808c247570Ed62308Aeb2eEF6fc7A

#whale #btc¬†¬† #Bitcoin¬†¬† #ElonMusk #gift #prize #God #BabyTigerKing #dogecoin #shibainu #Ethereum #BNB",bitcoinmagazine give me a bnb or eth gift to build a good life my wallet address 0x75e49461bfe808c247570ed62308aeb2eef6fc7a whale btc bitcoin elonmusk gift prize god babytigerking dogecoin shibainu ethereum bnb,0.12724344432353973,0.8601816296577454,0.012575006112456322
2022-04-06,23:45,"... like the #Fed's rate hikes.

""I think #bitcoin has performed amazingly well,"" Novogratz said.

He added that he believes 
Fed Chairman Jerome Powell ""realised he was behind the curve,"" and warned that he will likely be ""very hawkish"" for a while. Powell has a 
reputation...",like the fed rate hikes i think bitcoin has performed amazingly well novogratz said he added that he believes fed chairman jerome powell realised he was behind the curve and warned that he will likely be very hawkish for a while powell has a reputation,0.6316338777542114,0.21993888914585114,0.14842717349529266
2022-04-06,23:45,"... Novogratz, CEO of 
#GalaxyDigital.

In a fireside chat with #BTC advocate and investor Anthony ""Pomp"" Pompliano at the Bitcoin 2022 conference in Miami on Wednesday, Novogratz said he's been impressed by bitcoin's recent performance, considering macroeconomic 
headwinds...",novogratz ceo of galaxydigital in a fireside chat with btc advocate and investor anthony pomp pompliano at the bitcoin 2022 conference in miami on wednesday novogratz said he is been impressed by bitcoin recent performance considering macroeconomic headwinds,0.9300811290740967,0.052207447588443756,0.01771136000752449
2022-04-06,23:45,Bitcoin down to $ 43k range. -5.1% change in 24h.  #bitcoin #btc,bitcoin down to 43k range 51 change in 24h bitcoin btc,0.030465399846434593,0.05501258373260498,0.9145220518112183
2022-04-06,23:45,Current #Bitcoin Price is $43480 #BTC #Crypto,current bitcoin price is 43480 btc crypto,0.021061882376670837,0.9499701857566833,0.028967902064323425
2022-04-06,23:45,"@rovercrc Give me a BNB or ETH gift to build a good life. 

My wallet address üëáüëáüëáüëá

0x75E49461BFE808c247570Ed62308Aeb2eEF6fc7A

#whale #btc¬†¬† #Bitcoin¬†¬† #ElonMusk #gift #prize #God #BabyTigerKing #dogecoin #shibainu #Ethereum #BNB",rovercrc give me a bnb or eth gift to build a good life my wallet address 0x75e49461bfe808c247570ed62308aeb2eef6fc7a whale btc bitcoin elonmusk gift prize god babytigerking dogecoin shibainu ethereum bnb,0.14569102227687836,0.8407042026519775,0.013604790903627872
2022-04-06,23:45,"ready to fly

‚úà technical goal
 OG USDT 
 üî•
OG
4. 00

4.111

4.138

4.211

4.286

4.322

üß∂Go
üü¢ üü¢ üü¢ üü¢
#og  #crypto #whale #btc #eth #DOCK $  #BTC  
#Bitcoin #„Éì„ÉÉ„Éà„Ç≥„Ç§„É≥ #BTC #BTCUSD #BTCUSDT #BTCJPY #‰ªÆÊÉ≥ÈÄöË≤® #ÊäïË≥á #Crypto #FX

#BTC
#BTC
#BTC
#BTC

#BTC

#B#BTC
#BTC
#BTC",ready to fly technical goal og usdt og 4 00 4111 4138 4211 4286 4322 go og crypto whale btc eth dock btc bitcoin „Éì„ÉÉ„Éà„Ç≥„Ç§„É≥ btc btcusd btcusdt btcjpy ‰ªÆÊÉ≥ÈÄöË≤® ÊäïË≥á crypto fx btc btc btc btc btc bbtc btc btc,0.08648646622896194,0.8988091945648193,0.014704342000186443
2022-04-06,23:45,"@TrustWallet @cz_binance @APompliano Give me a BNB or ETH gift to build a good life. 

My wallet address üëáüëáüëáüëá

0x75E49461BFE808c247570Ed62308Aeb2eEF6fc7A

#whale #btc¬†¬† #Bitcoin¬†¬† #ElonMusk #gift #prize #God #BabyTigerKing #dogecoin #shibainu #Ethereum #BNB",trustwallet czbinance apompliano give me a bnb or eth gift to build a good life my wallet address 0x75e49461bfe808c247570ed62308aeb2eef6fc7a whale btc bitcoin elonmusk gift prize god babytigerking dogecoin shibainu ethereum bnb,0.15897172689437866,0.8296521306037903,0.01137605868279934
2022-04-06,23:45,"NFT UPDATE :

After @CryptoCannaClub , @commuNFT_y , @TheVisitorsNFT , @TheAquaverse , @Stramosinft @clubgorgon , I've added @nft_godz  to my collection üòé

HODL see you next year ‚úä

#Metaverse #NFTcollectibles #BTC #EGLD #Solana #ETH",nft update after cryptocannaclub communfty thevisitorsnft theaquaverse stramosinft clubgorgon i have added nftgodz to my collection hodl see you next year metaverse nftcollectibles btc egld solana eth,0.09771661460399628,0.8869450092315674,0.015338406898081303
2022-04-06,23:45,"@cz_binance @APompliano Give me a BNB or ETH gift to build a good life. 

My wallet address üëáüëáüëáüëá

0x75E49461BFE808c247570Ed62308Aeb2eEF6fc7A

#whale #btc¬†¬† #Bitcoin¬†¬† #ElonMusk #gift #prize #God #BabyTigerKing #dogecoin #shibainu #Ethereum #BNB",czbinance apompliano give me a bnb or eth gift to build a good life my wallet address 0x75e49461bfe808c247570ed62308aeb2eef6fc7a whale btc bitcoin elonmusk gift prize god babytigerking dogecoin shibainu ethereum bnb,0.14424028992652893,0.8437682390213013,0.011991512030363083
2022-04-06,23:45,"Honest question, Who picked the #Bitcoin conference on the same day of a big FED‚Äôs meeting? 

What a logistical miscalculation ü§¶üèªü§∑üèª",honest question who picked the bitcoin conference on the same day of a big feds meeting what a logistical miscalculation,0.03629820793867111,0.3808223307132721,0.5828794240951538
2022-04-06,23:45,"#ETC #Binance #PUMP

üìàAlert Currency PUMPüí∏üí∏üí∏
Crypto Coin symbol: $ETC #ETC

Do you #hodl any #BTC or these #AltCoins?
#Cryptocurrency 79088050",etc binance pump alert currency pump crypto coin etc etc do you hodl any btc or these altcoins cryptocurrency 79088050,0.031057460233569145,0.9477518200874329,0.02119077742099762
2022-04-06,23:45,"The latest #bitcoin block 730763 with 406 transactions was just mined by F2Pool
Total Fees:0.01645129
Block Subsidy:6.25
#Bitcoin #BTC #blockchain #analysis",the latest bitcoin block 730763 with 406 transactions was just mined by f2pool total block bitcoin btc blockchain analysis,0.02685587853193283,0.9435805082321167,0.029563674703240395
2022-04-06,23:45,"22622) Current #Bitcoin Price is $43379 #BTC #Crypto
Indicators Daily:
RSI: 47.6
MA(20): 44613
MA(50): 41746
MA(200): 48239
Bollinger B. lower/upper: 40453/48773

#Ethereum Price is $3190 #ETH
RSI: 51.9
MA(20): 3212
MA(50): 2906
MA(200): 3487
BB: 2783/3641

#VAIOT Price: $0.053",22622 current bitcoin price is 43379 btc crypto indicators 476 44613 41746 48239 bollinger b 4045348773 ethereum price is 3190 eth 519 3212 2906 3487 27833641 vaiot 0053,0.0294179767370224,0.9296717643737793,0.040910180658102036
2022-04-06,23:45,"#Bitcoin is down 3.99% for the day
#BTC is trading at $43,474.05 #USD 
For the week, $BTC is down 5.47%
For the month, up 16.9%
60 Days up 7.57%
90 Days up 2.97%
For the year down 27.32%
Year to Date down 7.86%
#Dominance 39.7%
#Crypto #Cryptonews #Cryptocurrency @Bitcoin",bitcoin is down 399 for the day btc is trading at 4347405 usd for the week btc is down 547 for the month up 169 60 days up 757 90 days up 297 for the year down 2732 year to date down 786 dominance 397 crypto cryptonews cryptocurrency bitcoin,0.012819715775549412,0.024833235889673233,0.9623470306396484
2022-04-06,23:45,Apparently Germany üá©üá™ just seized 25 million in #bitcoin #shitcoin,apparently germany just seized 25 million in bitcoin shitcoin,0.055575765669345856,0.9206177592277527,0.023806454613804817
2022-04-06,23:45,"@m_soond Average electrician here. CBDCs are the currency of autocracy! Fix the money, fix the world. #Bitcoin",msoond average electrician here cbdcs are the currency of autocracy fix the money fix the world bitcoin,0.041038691997528076,0.93622887134552,0.02273237146437168
2022-04-06,23:45,"@WatcherGuru Give me a BNB or ETH gift to build a good life. 

My wallet address üëáüëáüëáüëá

0x75E49461BFE808c247570Ed62308Aeb2eEF6fc7A

#whale #btc¬†¬† #Bitcoin¬†¬† #ElonMusk #gift #prize #God #BabyTigerKing #dogecoin #shibainu #Ethereum #BNB",watcherguru give me a bnb or eth gift to build a good life my wallet address 0x75e49461bfe808c247570ed62308aeb2eef6fc7a whale btc bitcoin elonmusk gift prize god babytigerking dogecoin shibainu ethereum bnb,0.14102497696876526,0.845710039138794,0.013265002518892288
2022-04-06,23:45,"@icebuild @whale_alert Give me a BNB or ETH gift to build a good life. 

My wallet address üëáüëáüëáüëá

0x75E49461BFE808c247570Ed62308Aeb2eEF6fc7A

#whale #btc¬†¬† #Bitcoin¬†¬† #ElonMusk #gift #prize #God #BabyTigerKing #dogecoin #shibainu #Ethereum #BNB",icebuild whalealert give me a bnb or eth gift to build a good life my wallet address 0x75e49461bfe808c247570ed62308aeb2eef6fc7a whale btc bitcoin elonmusk gift prize god babytigerking dogecoin shibainu ethereum bnb,0.139898419380188,0.8480761051177979,0.012025506235659122
2022-04-06,23:45,"@RazvanStanciu9 @whale_alert Give me a BNB or ETH gift to build a good life. 

My wallet address üëáüëáüëáüëá

0x75E49461BFE808c247570Ed62308Aeb2eEF6fc7A

#whale #btc¬†¬† #Bitcoin¬†¬† #ElonMusk #gift #prize #God #BabyTigerKing #dogecoin #shibainu #Ethereum #BNB",razvanstanciu9 whalealert give me a bnb or eth gift to build a good life my wallet address 0x75e49461bfe808c247570ed62308aeb2eef6fc7a whale btc bitcoin elonmusk gift prize god babytigerking dogecoin shibainu ethereum bnb,0.15771110355854034,0.8306169509887695,0.01167199295014143
2022-04-06,23:45,"#Crypto #Bitcoin Coronos Chain is on fire, and that‚Äôs because of #Croge, #CoronoApe and #CroshiInu. They will literally make billionaires in no time. Get involved ASAP.",crypto bitcoin coronos chain is on fire and thats because of croge coronoape and croshiinu they will literally make billionaires in no time get involved asap,0.04414554312825203,0.81484454870224,0.14100994169712067
2022-04-06,23:45,"22621) Current #Bitcoin Price is $43411 #BTC #Crypto
Indicators Daily:
RSI: 47.6
MA(20): 44612
MA(50): 41745
MA(200): 48239
Bollinger B. lower/upper: 40452/48773

#Ethereum Price is $3196 #ETH
RSI: 51.7
MA(20): 3212
MA(50): 2906
MA(200): 3487
BB: 2783/3641

#VAIOT Price: $0.052",22621 current bitcoin price is 43411 btc crypto indicators 476 44612 41745 48239 bollinger b 4045248773 ethereum price is 3196 eth 517 3212 2906 3487 27833641 vaiot 0052,0.03204714134335518,0.930950403213501,0.03700242191553116
2022-04-06,23:45,"@whale_alert Give me a BNB or ETH gift to build a good life. 

My wallet address üëáüëáüëáüëá

0x75E49461BFE808c247570Ed62308Aeb2eEF6fc7A

#whale #btc¬†¬† #Bitcoin¬†¬† #ElonMusk #gift #prize #God #BabyTigerKing #dogecoin #shibainu #Ethereum #BNB",whalealert give me a bnb or eth gift to build a good life my wallet address 0x75e49461bfe808c247570ed62308aeb2eef6fc7a whale btc bitcoin elonmusk gift prize god babytigerking dogecoin shibainu ethereum bnb,0.15255029499530792,0.8340726494789124,0.013377035968005657
2022-04-06,23:45,@CashApp Sushi please $tomwasham #cashappbtcweek #bitcoin¬† üç±,cashapp sushi please tomwasham cashappbtcweek bitcoin,0.041177138686180115,0.9294734001159668,0.02934945374727249
2022-04-06,23:45,"üöÄüöÄüöÄ $929,857 BTCUSDT LONGED @$43,350.00 on #Bybit (23:32:37 UTC) #BTC #cryptocurrency",929857 btcusdt longed 4335000 on bybit utc btc cryptocurrency,0.03213976323604584,0.9371718168258667,0.030688367784023285
2022-04-06,23:45,@cryptocom @pandagirltoken #pandagirl #nft #nftart #giveaway #BTC #ADA #ETH wait listing after minit nft 29.04,cryptocom pandagirltoken pandagirl nft nftart giveaway btc ada eth wait listing after minit nft 2904,0.04422036558389664,0.9366613626480103,0.019118275493383408
2022-04-06,23:45,"@MMCrypto Are you asking #dogecoin holders? üôã‚Äç‚ôÇÔ∏è

#Bitcoin love me üö® üö® üö® üö® üö®",mmcrypto are you asking dogecoin holders bitcoin love me,0.043005164712667465,0.9275504946708679,0.029444338753819466
2022-04-06,23:45,Who else turned the DCA up a notch today #bitcoin,who else turned the dca up a notch today bitcoin,0.40017271041870117,0.5762444138526917,0.02358291484415531
2022-04-06,23:45,"#Cryptocurrency #ATA #Binance #DUMP

üìâAlert Currency DUMP
Crypto Coin symbol: $ATA #ATA

Do you #hodl any #BTC or these #AltCoins?
#Cryptocurrency  31277169",cryptocurrency ata binance dump alert currency dump crypto coin ata ata do you hodl any btc or these altcoins cryptocurrency 31277169,0.025078700855374336,0.9494692087173462,0.025452112779021263
2022-04-06,23:45,"@Cointelegraph What is your opinion about the current #Bitcoin state, since its Fear and Greed Index is 55 - NEUTRAL, with price of 43866.371667997044 usd? Our analytical team has done extended research regarding #BTC, but we want to hear your opinion also.",cointelegraph what is your opinion about the current bitcoin state since its fear and greed index is 55 neutral with price of 43866371667997044 usd our analytical team has done extended research regarding btc but we want to hear your opinion also,0.04296598210930824,0.9316522479057312,0.02538171596825123
2022-04-06,23:45,"üü© Block 730763 ‚õè ‚õè

üìÖ 6th Apr 2022, 23:31:00 GMT

üì£ 406 tx with a value of 1,403.850 ‚Çø ($61.04m üá∫üá∏)

üì£ distributed to 1,607 recipients üíéüôå

üì£ 19,004,775.00 ‚Çø (90.49893%) mined ‚õè

üì£ 1,995,225.00 ‚Çø remaining üí∞

#bitcoin #tictoknextblock",block 730763 6th apr 2022 gmt 406 tx with a value of 1403850 6104m distributed to 1607 recipients 1900477500 9049893 mined 199522500 remaining bitcoin tictoknextblock,0.05679677799344063,0.9208094477653503,0.02239377237856388
2022-04-06,23:45,$RFDN is my favorite housing market crash signal! Get rekt just like #bitcoin,rfdn is my favorite housing market crash signal get rekt just like bitcoin,0.049827899783849716,0.919181764125824,0.030990377068519592
2022-04-06,23:45,"22620) Current #Bitcoin Price is $43510 #BTC #Crypto
Indicators Daily:
RSI: 48.0
MA(20): 44619
MA(50): 41748
MA(200): 48240
Bollinger B. lower/upper: 40466/48772

#Ethereum Price is $3204 #ETH
RSI: 52.2
MA(20): 3212
MA(50): 2907
MA(200): 3487
BB: 2783/3642

#VAIOT Price: $0.052",22620 current bitcoin price is 43510 btc crypto indicators 480 44619 41748 48240 bollinger b 4046648772 ethereum price is 3204 eth 522 3212 2907 3487 27833642 vaiot 0052,0.02951589971780777,0.9329026341438293,0.03758155554533005
2022-04-06,23:45,"Remember when #Bitcoin conferences used to pump price? 

Good old times. Now every conference is for certain a nuke.",remember when bitcoin conferences used to pump price good old times now every conference is for certain a nuke,0.08192421495914459,0.8915502429008484,0.026525521650910378
2022-04-06,23:45,"üëã A new block was found on the #Bitcoin network. We're at block height 730763, current #bitcoin price is $43478.49 and there are 199519997690011 #sats left to mine.",a new block was found on the bitcoin network we are at block height 730763 current bitcoin price is 4347849 and there are 199519997690011 sats left to mine,0.02353999763727188,0.9298867583274841,0.04657326266169548
2022-04-06,23:45,"Very few #bitcoin buyers rn; we tried to sell OTC today ‚Äî no takers, ended up market selling. Buyer beware.",very few bitcoin buyers rn we tried to sell otc today no takers ended up market selling buyer beware,0.07674092799425125,0.8684200644493103,0.054839033633470535
2022-04-06,23:45,"The #cryptocurrency market is extending its losses for the day üëá

#Bitcoin $43,500 (-4.42%) üî¥
#Doge $0.14 (-16.67%) üî¥
#Ethereum $3,201 (-6.04%) üî¥
#Cardano $1.07 (-8.69%) üî¥
#XRP $0.77 (-5.46%) üî¥
#ETC $39.40 (-11.24%) üî¥",the cryptocurrency market is extending its losses for the day bitcoin 43500 442 doge 014 1667 ethereum 3201 604 cardano 107 869 xrp 077 546 etc 3940 1124,0.01947823353111744,0.06886544823646545,0.9116562604904175
2022-04-06,23:45,"Is $BTC going to hold, head further down, or head to the upside? You tell us ü§óü§óü§ó #btc #bitcoin #Crypto #cryptocurrency #cryptotrading #CryptoNews #blockchain #blockchaintechnology #altcoin #ethereum #nft #nfts",is btc going to hold head further down or head to the upside you tell us btc bitcoin crypto cryptocurrency cryptotrading cryptonews blockchain blockchaintechnology altcoin ethereum nft nfts,0.029147140681743622,0.9013646841049194,0.06948821991682053
2022-04-06,23:45,@FEGtoken $FEG $ROX $USCT #SmartDeFi #Launchpad #BSCGem #FEG #trading #investing #Cryptocurrency #BTC¬†#ETH #Bitcoin¬†#Ethereum @FEGtoken ü¶çüöÄ,fegtoken feg rox usct smartdefi launchpad bscgem feg trading investing cryptocurrency btc eth bitcoin ethereum fegtoken,0.06529265642166138,0.9207974076271057,0.013909944333136082
2022-04-06,23:45,Howdy @elonmusk are you interesting in @weare_satoshi #SATS ! I know you ‚ù§ #Bitcoin,howdy elonmusk are you interesting in wearesatoshi sats i know you bitcoin,0.04850449413061142,0.9241175651550293,0.027377942577004433
2022-04-06,23:45,"@rovercrc The fear of being scammed will slow you down in life. Everything involves risk, invest wisely and not greedily there are lots of investment opportunities out there. Hit me up let's start something. #BTC #Crypto",rovercrc the fear of being scammed will slow you down in life everything involves risk invest wisely and not greedily there are lots of investment opportunities out there hit me up let us start something btc crypto,0.041016608476638794,0.9288221597671509,0.030161291360855103
2022-04-06,23:45,"@jclcapital Breakout, pullback, #FED, Yanet Yellen, inflation, 0.5%, Apple wallet and #bitcoin?, recession and new world order.",jclcapital breakout pullback fed yanet yellen inflation 05 apple wallet and bitcoin recession and new world order,0.042895905673503876,0.656414270401001,0.30068978667259216
2022-04-06,23:45,"The latest #bitcoin block 730762 with 551 transactions was just mined by Binance Pool
Total Fees:0.01595347
Block Subsidy:6.25
#Bitcoin #BTC #blockchain #analysis",the latest bitcoin block 730762 with 551 transactions was just mined by binance pool total block bitcoin btc blockchain analysis,0.022805172950029373,0.9494483470916748,0.027746422216296196
2022-04-06,23:45,"@adamobrien_ @CTVNews @PierrePoilievre is the 1st politician that I want to endorse, not only for mentioning #Bitcoin &amp; #Blockchain, but also for his commentary on the history of money &amp; his interest in educating #Canadians about sound finances.  But, he's a politician...is his agenda legit?
We'll see",adamobrien ctvnews pierrepoilievre is the 1st politician that i want to endorse not only for mentioning bitcoin blockchain but also for his commentary on the history of money his interest in educating canadians about sound finances but he is a politicianis his agenda legit we will see,0.21113666892051697,0.7773711085319519,0.011492223478853703
2022-04-06,23:45,"Can we get #BTC at $38,000?",can we get btc at 38000,0.05718617141246796,0.9292207360267639,0.013593114912509918
2022-04-06,23:45,"I'd like to know your opinion on $BTC #bitcoin

Going to 30k or 50k??? #ethereum #ETH #crypto",i would like to know your opinion on btc bitcoin going to 30k or 50k ethereum eth crypto,0.04882349073886871,0.9379947185516357,0.013181734830141068
2022-04-06,23:45,"22619) Current #Bitcoin Price is $43474 #BTC #Crypto
Indicators Daily:
RSI: 48.0
MA(20): 44619
MA(50): 41748
MA(200): 48240
Bollinger B. lower/upper: 40465/48772

#Ethereum Price is $3202 #ETH
RSI: 52.4
MA(20): 3213
MA(50): 2907
MA(200): 3487
BB: 2784/3642

#VAIOT Price: $0.052",22619 current bitcoin price is 43474 btc crypto indicators 480 44619 41748 48240 bollinger b 4046548772 ethereum price is 3202 eth 524 3213 2907 3487 27843642 vaiot 0052,0.0291239432990551,0.9348936080932617,0.03598236292600632
2022-04-06,23:45,@Cointelegraph #BTC ..can wait for the big spring to 50k..just a matter of time üöÄüöÄüöÄüî•üî•üî•,cointelegraph btc can wait for the big spring to 50kjust a matter of time,0.06550030410289764,0.9177204370498657,0.016779238358139992
2022-04-06,23:45,"@lacetoken Great project, soon to the Moon
@Budis46505702 
@Budisan32051055 
@bayu_rahmadhi 

0x211879B70856E93be232E410B4Bb20ec4d0ECdC6

#AIRDROP #ICO #BITCOIN¬† #BLOCKCHAIN #TOKEN #GIVEAWAY #Ethereum #BNB",lacetoken great project soon to the moon budis46505702 budisan32051055 bayurahmadhi 0x211879b70856e93be232e410b4bb20ec4d0ecdc6 airdrop ico bitcoin blockchain token giveaway ethereum bnb,0.04893795773386955,0.9335779547691345,0.017484040930867195
2022-04-06,23:45,"The $SLP from @AxieInfinity is now at $0.02173 
üìâ Is down -1.059% compare to 1 hour ago
üìà and is up 6.305% compare to 1 week ago
 #BTC #ETH #SLP",the slp from axieinfinity is now at 002173 is down 1059 compare to 1 hour ago and is up 6305 compare to 1 week ago btc eth slp,0.026264065876603127,0.02954472228884697,0.9441912770271301
2022-04-06,23:45,"@Cylumfinance Good project wish you all the best üëè‚ô•Ô∏è
#CYLUM #CYM #BNB #BSC #cryptocurrency #binance #BTC #ETH
@Jall 
@ELMoudenMoham17 
@ElMsiahMohamed1",cylumfinance good project wish you all the best cylum cym bnb bsc cryptocurrency binance btc eth jall elmoudenmoham17 elmsiahmohamed1,0.28682562708854675,0.7013190388679504,0.011855386197566986
2022-04-06,23:45,"buy the dip, as usual #NFA #BTC",buy the dip as usual nfa btc,0.04559110105037689,0.9277440905570984,0.02666482701897621
2022-04-06,23:45,@sovrynmindset @Breedlove22 @pierre_rochard @giacomozucco @TomerStrolight Read the book twice like most on my #Bitcoin book collection‚Ä¶,sovrynmindset breedlove22 pierrerochard giacomozucco tomerstrolight read the book twice like most on my bitcoin book collection,0.07501406222581863,0.8912574648857117,0.033728521317243576
2022-04-06,23:45,"Cryptocurrency Market | Coin Prices [15m]
üîî #Bitcoin Price: $43500.02
üîî #Ethereum Price: $3203.17
üîî #Bnb Price: $424.4
üîî #Shib Price: $0.00002469
üîî #Doge Price: $0.1450
üîî #Avax Price: $84.50",cryptocurrency market coin prices 15m bitcoin 4350002 ethereum 320317 bnb 4244 shib 000002469 doge 01450 avax 8450,0.04799184948205948,0.9265897870063782,0.0254183579236269
2022-04-06,23:45,"The U.S. Military Biological Program in Ukraine is similar to research conducted by the Unit 731 in the 1940s, when members of the Japanese military later fled to the United States to escape war crimes.#BTC #Bucha #UCL",the us military biological program in ukraine is similar to research conducted by the unit 731 in the 1940s when members of the japanese military later fled to the united states to escape war crimesbtc bucha ucl,0.047331273555755615,0.930898129940033,0.021770615130662918
2022-04-06,23:45,"Dont be Surprised  if #Bitcoin drops down to 40k 

#crypto #altcoinseason #BitcoinCrash",dont be surprised if bitcoin drops down to 40k crypto altcoinseason bitcoincrash,0.037999898195266724,0.6126495003700256,0.3493506610393524
2022-04-06,23:45,@WatcherGuru #Bitcoin &amp; crypto. üòÜ,watcherguru bitcoin crypto,0.03318744897842407,0.9404648542404175,0.02634766697883606
2022-04-06,23:45,"Top 5 #crypto prices with 30m change:

üü¢ $DUSK #DUSK
üü¢ $AVAX #AVAX
üî¥ $BLZ #BLZ
üü¢ $SAND #SAND

Do you #hodl any #BTC or these #AltCoins?  73373801",top 5 crypto prices with 30m dusk dusk avax avax blz blz sand sand do you hodl any btc or these altcoins 73373801,0.0380995012819767,0.9439051747322083,0.017995333299040794
2022-04-06,23:45,"üü© Block 730762 ‚õè ‚õè

üìÖ 6th Apr 2022, 23:28:42 GMT

üì£ 551 tx with a value of 1,170.649 ‚Çø ($50.91m üá∫üá∏)

üì£ distributed to 1,942 recipients üíéüôå

üì£ 19,004,768.75 ‚Çø (90.49890%) mined ‚õè

üì£ 1,995,231.25 ‚Çø remaining üí∞

#bitcoin #tictoknextblock",block 730762 6th apr 2022 gmt 551 tx with a value of 1170649 5091m distributed to 1942 recipients 1900476875 9049890 mined 199523125 remaining bitcoin tictoknextblock,0.0412510484457016,0.9369672536849976,0.021781733259558678
2022-04-06,23:45,"üìà Total Market Cap: $1,999,815,547,645
üíµ 1 #BTC: $43,550.89
üî¥ BTC Dominance: 41.38%
üíπ 1 #ETH: $3,205.67
üíé ETH Dominance: 19.27%
‚è∞ Update Time: 07-04-2022 - 02:30:03 (GMT+3)",total market 1999815547645 1 4355089 btc 4138 1 320567 eth 1927 update 07042022 gmt3,0.032992664724588394,0.9341602921485901,0.03284700959920883
2022-04-06,23:45,"[‚Çø] #Bitcoin Daily $BTC [‚Çø]

Kraken‚ùØ
A:$43,487 L:$43,211 H:$45,534
Bitstamp‚ùØ
A:$43,489 L:$43,087 H:$45,912
Bitfinex‚ùØ
A:$43,497 L:$43,242 H:$45,879

Market Cap: $826,388,018,395
24h Volume: $7,421,912,544
24h: -4.44%  7d: -14.54%",bitcoin daily btc kraken bitstamp bitfinex market 826388018395 24h 7421912544 444 1454,0.0362694151699543,0.9354705810546875,0.028259973973035812
2022-04-06,23:45,"30 USD on #ElSalvador #BitcoinDay got you 63,900 sat. 
Now 63,900 sat are 27.78 USD (-7.39%)

1 BTC = 43,486.80 USD
1 USD = 2,300 Sat
on Wed 06 Apr 2022 06:30 PM CDT

1 BTC = 46,948.36 USD
1 USD = 2,130 sat
on Tue 07 Sep 2021 11:00 AM CDT

#Bitcoin",30 usd on elsalvador bitcoinday got you 63900 sat now 63900 sat are 2778 usd 739 1 btc 4348680 usd 1 usd 2300 sat on wed 06 apr 2022 pm cdt 1 btc 4694836 usd 1 usd 2130 sat on tue 07 sep 2021 am cdt bitcoin,0.07912188023328781,0.9047151803970337,0.016162974759936333
2022-04-06,23:45,"#BTC $43523  $BTC
#ETH $3203.89  $Eth
#BNB $424.46  $Bnb",btc 43523 btc eth 320389 eth bnb 42446 bnb,0.05381987616419792,0.9235796332359314,0.022600475698709488
2022-04-06,23:45,"30 USD en #ElSalvador #BitcoinDay te dieren 63,900 sat. 
Ahora 63,900 sat son 27.78 USD (-7.39%)

1 BTC = 43,486.80 USD
1 USD = 2,300 Sat
el 06 Apr 2022 06:30 PM CDT

1 BTC = 46,948.36 USD
1 USD = 2,130 sat
el Mar 07 Sep 2021 10:00 AM CST

#Bitcoin",30 usd en elsalvador bitcoinday te dieren 63900 sat ahora 63900 sat son 2778 usd 739 1 btc 4348680 usd 1 usd 2300 sat el 06 apr 2022 pm cdt 1 btc 4694836 usd 1 usd 2130 sat el mar 07 sep 2021 am cst bitcoin,0.10669004917144775,0.8769458532333374,0.016364149749279022
2022-04-06,23:45,"@MMCrypto loss a lot, not sure how well he sleep tonight

#Bitcoin love me üö® üö® üö® üö® üö®",mmcrypto loss a lot not sure how well he sleep tonight bitcoin love me,0.058496396988630295,0.8748906254768372,0.06661300361156464
2022-04-06,23:45,At one point we all laughed at electric cars. #bitcoin,at one point we all laughed at electric cars bitcoin,0.04137701168656349,0.8280079960823059,0.13061495125293732
2022-04-06,23:45,"Top 10 #Cryptocurrency Live Prices: 
(07:30 PM . Apr 06,2022)

#BTC $43550.89
#ETH $3205.67
#BNB $424.83
#DOGE $0.15
#SHIB $0.0000246840
#AXS $54.31
#MANA $2.38
#UNI $10.18
#GM $0.0000261124
#KISHU $0.0000000015

Comments! Which coins would like to be listed?",top 10 cryptocurrency live pm apr 062022 btc 4355089 eth 320567 bnb 42483 doge 015 shib 00000246840 axs 5431 mana 238 uni 1018 gm 00000261124 kishu 00000000015 comments which coins would like to be listed,0.02731752209365368,0.931610107421875,0.04107232019305229
