,Date,Tweet Text,Retweet Count,Favorite Count,Username,User follower count,ID
0,Wed Apr 06 23:45:03 +0000 2022,"22633) Current #Bitcoin Price is $43351 #BTC #Crypto
Indicators Daily:
RSI: 47.5
MA(20): 44612
MA(50): 41745
MA(200): 48239
Bollinger B. lower/upper: 40450/48773

#Ethereum Price is $3190 #ETH
RSI: 51.8
MA(20): 3212
MA(50): 2906
MA(200): 3487
BB: 2783/3641

#VAIOT Price: $0.052",0,0,LivePriceCrypto,348,1511852517495300099
1,Wed Apr 06 23:45:03 +0000 2022,"#Bitcoin profits flow into alts 
 alt profits flow back into BTC",0,0,TradinginTime,2453,1511852515209453581
2,Wed Apr 06 23:45:02 +0000 2022,"#Bitcoin $BTC 
Price: $43,365.25

Areas of Support
Hold Above: $42,553.83

Trends
Near: DNüìâ
Short: UPüìà
Medium: UPüìà
Long: DNüìâ

Levels of interest
Short: $59,183.61
Med: $93,618.42
Long: $110,423.27",0,0,DCA_Cryptoz,13517,1511852512344780810
3,Wed Apr 06 23:45:02 +0000 2022,"Follow us to receive Premium Signals from Top Paid Channels for FREE!!
#Celo  #CELO #BNB  #BNB #Bitcoin  #BTC #STEPN  #GMT #Polkacity  #POLC",0,0,TopPaidSignals,368,1511852511883374592
4,Wed Apr 06 23:45:01 +0000 2022,"#BTC $43295  $BTC
#ETH $3182.9  $Eth
#BNB $421.82  $Bnb",0,0,Pricecrypt0,49,1511852510193070089
5,Wed Apr 06 23:45:01 +0000 2022,"BITCOIN FELL!

USD $43,359.20 (-0,56%)
Yesterday: -6,94%
Last 30 days: +12,89%

#bitcoin",0,0,CryptFloats,23,1511852509815529472
6,Wed Apr 06 23:45:01 +0000 2022,Don't underestimate #teamredneck! The martians are here and these guys are ready to defend planet Earth! #martiansvs #nft #metaverse #nftproject #eth #bitcoin,0,0,NessaMog,180,1511852509148717057
7,Wed Apr 06 23:45:00 +0000 2022,"Top 10 #Cryptocurrency Live Prices: 
(07:45 PM . Apr 06,2022)

#BTC $43312.70
#ETH $3184.57
#BNB $421.57
#DOGE $0.14
#SHIB $0.0000244807
#AXS $53.61
#MANA $2.35
#UNI $10.08
#GM $0.0000261362
#KISHU $0.0000000015

Comments! Which coins would like to be listed?",0,0,StoreFiAi,768,1511852503192723457
8,Wed Apr 06 23:44:59 +0000 2022,@AltcoinGordon Just bought the #Bitcoin dip https://t.co/n7Hvq0T4RN,0,0,HODL1966,102,1511852501812879362
9,Wed Apr 06 23:44:59 +0000 2022,ProShares files with SEC for Short #bitcoin Strategy ETF By Cointelegraph https://t.co/mRylpzh0cs https://t.co/xORCtqpD85,0,0,bitcoinagile,65301,1511852500122583042
10,Wed Apr 06 23:44:59 +0000 2022,"@MartiniGuyYT @MOONjob8 Welcome 
We are $CULT Dao

Welcome  web3  

#wearecultdao 

#readthecultmanifesto 

@wearecultdao 

$CULT
ÔºÉBTC¬†

Never forget the 1st rule : talk about $cult üé≠",0,0,siyuexx,304,1511852498453430276
11,Wed Apr 06 23:44:58 +0000 2022,"Only 10% of #Bitcoin left, anyone guessing? üëÄ",0,0,Thebitblond,135,1511852495966019588
12,Wed Apr 06 23:44:58 +0000 2022,I recommend you a unique project. An experienced team works on a project daily. Consultants help them with this. Read the white paper and join the awesome project #hotfriescoin #StableProgressiveCoin #onlyup #Airdrop #bountycampaign #bitcoin #defi,0,0,Sooloonina,10033,1511852494263140361
13,Wed Apr 06 23:44:55 +0000 2022,@evantan Bought a ton of #bitcoin in 2013,0,0,Investopia,870,1511852485090107393
14,Wed Apr 06 23:44:55 +0000 2022,"‚ÄúInflation is not an act of god or a catastrophe of elements. #Inflation is a policy.‚Äù  

Ludwig von Mises on #Bitcoin",0,0,BTCMalayali,46,1511852484595228672
15,Wed Apr 06 23:44:54 +0000 2022,#BTC discount $BTCUSD,0,0,paul_purcell2,1,1511852479079669761
16,Wed Apr 06 23:44:51 +0000 2022,"I am the oracle at predicting #bitcoin dips.

The few times I buy it goes -20% next day.

#cryptocurrency
#crypto",0,0,tennistipsy,145,1511852465095909383
17,Wed Apr 06 23:44:45 +0000 2022,#Bitcoin Sell Outs,0,0,CountBitcoin,5021,1511852442106826752
18,Wed Apr 06 23:44:40 +0000 2022,"CryptoWhale Nice thing, try to edit your tweets about #Bitcoin",0,0,KellyWe74320502,10,1511852422074822656
19,Wed Apr 06 23:44:39 +0000 2022,Current #Bitcoin Price is $43313 #BTC #Crypto,0,0,IAmBitcoinBot,888,1511852414306951169
20,Wed Apr 06 23:44:36 +0000 2022,Join the unique project. I think that the project will achieve great success. Read white paper and join the project with great potential. Do not miss the opportunity to become part of the project. #hotfriescoin #StableProgressiveCoin #onlyup #Airdrop #bountycampaign #bitcoin,0,0,Wolftron11,10015,1511852402919579651
21,Wed Apr 06 23:44:31 +0000 2022,"üöÄüöÄüöÄ $1,020,400 BTCUSD LONGED @$43,365.5 on #Binance (23:44:31 UTC) #BTC #cryptocurrency",0,0,ExchangeWhales,2717,1511852380761079818
22,Wed Apr 06 23:44:27 +0000 2022,"The group is as of now functioning admirably and doing smart thoughts, so the undertaking is getting more well known networks.
#IgniteBlockchain #Ignite #IGT #blockchain #cryptocurrency #technology #bitcoin #money #crypto #Binance #BNB #cryptocurrencies #fintech @ignitechain",0,1,pk76872,3700,1511852364411531265
23,Wed Apr 06 23:44:19 +0000 2022,Become a member of the great project. Many media outlets are already talking about the project. An experienced team and a great idea. Read white paper and join #hotfriescoin #StableProgressiveCoin #onlyup #Airdrop #bountycampaign #bitcoin #defi,0,0,SirentHills,10044,1511852331515752449
24,Wed Apr 06 23:44:09 +0000 2022,@zerohedge Cant see how they confiscate all #Bitcoin.. but they will confiscate All #Bitcoin not under self custody,0,0,popesta,292,1511852288285061122
25,Wed Apr 06 23:44:08 +0000 2022,"There will come a day when altcoins are not closely tied to #BTC . The broader market will swing less as the real players in the space emerge. Remember, there will be lots of losers but there will be those few winners that will change the game.  Who do you think they are? #Crypto",0,0,keithhilton_,108,1511852285932019722
26,Wed Apr 06 23:44:06 +0000 2022,"Top 5 #crypto prices with 30m change:

üî¥ $ENS #ENS
üî¥ $LUNA #LUNA
üü¢ $HNT #HNT
üî¥ $KSM #KSM

Do you #hodl any #BTC or these #AltCoins?  29171566",0,0,AstrobluBot,256,1511852278029946880
27,Wed Apr 06 23:44:02 +0000 2022,"22632) Current #Bitcoin Price is $43274 #BTC #Crypto
Indicators Daily:
RSI: 47.3
MA(20): 44609
MA(50): 41744
MA(200): 48239
Bollinger B. lower/upper: 40444/48774

#Ethereum Price is $3180 #ETH
RSI: 51.4
MA(20): 3212
MA(50): 2906
MA(200): 3487
BB: 2782/3641

#VAIOT Price: $0.053",0,0,LivePriceCrypto,348,1511852262435434496
28,Wed Apr 06 23:44:01 +0000 2022,BREAKING: #btc 42k incoming,0,0,TheTattedGrizz,186,1511852258002042889
29,Wed Apr 06 23:44:01 +0000 2022,"$LUNA is now holding 35,767 #Bitcoin¬† worth $1.61 billion USD ü§ë",0,0,SerginhoB4,95,1511852257431756807
30,Wed Apr 06 23:44:00 +0000 2022,"@BitcoinErrorLog Agreed, I am from Nepal and people there need BTC. USD is better than the national currency which has consistently lost value over the dollar but nothing beats #Bitcoin",0,0,_sha256_512,39,1511852251928834054
31,Wed Apr 06 23:43:51 +0000 2022,"üöÄüöÄüöÄ $5,533,324 BTCUSDT LONGED @$43,350.00 on #Binance (23:43:51 UTC) #BTC #cryptocurrency",0,0,ExchangeWhales,2717,1511852214238990339
32,Wed Apr 06 23:43:51 +0000 2022,"üêÆ BULLWHALE! just LONGED $5,533,324 worth of #Bitcoin #BTC at $43,350 on #Binance Futures",0,2,BEARBULLWHALE,3691,1511852214020681731
33,Wed Apr 06 23:43:48 +0000 2022,"@FarooqAhmedX It is trying to tell the Wall Street has ""no ball ""to buy #Bitcoin.",0,0,B_HODLer001,153,1511852202104705024
34,Wed Apr 06 23:43:34 +0000 2022,"@MetaWorld_Game Nice Project and to the moon üöÄüöÄüöÄ

@Adnan8727253 @AdnanRunako @AdnanRinjani 

#MetaWorld_Game #NFT #BSC #BTC",0,0,Mahmoud87711922,46,1511852141815738382
35,Wed Apr 06 23:43:26 +0000 2022,"@AirdropDet Massive Project blowing the air guys let‚Äôs support this beautiful project guys for more rewards @EzedinmaChibuz1 @cranepapi @Christopla360 @Kashour_Yazeed @Charles8544 

‚Ä¶

#Airdrops #SteamPad #Bitcoin¬† #blockchain #AirdropDetective #Crypto",0,1,oluwabuchii,43,1511852111318900744
36,Wed Apr 06 23:43:24 +0000 2022,Do kwon will buy every #Bitcoin dips!,0,1,traderfromph,383,1511852102381092865
37,Wed Apr 06 23:43:14 +0000 2022,"If #bitcoin didn‚Äôt dump it wouldn‚Äôt be a Miami weekend.

#bitcoin #Bullish",1,1,SignalLTC,29820,1511852058974035969
38,Wed Apr 06 23:43:11 +0000 2022,Hope #BTC holds $42.8k‚Ä¶,0,0,Jas48_,32,1511852048869838854
39,Wed Apr 06 23:43:09 +0000 2022,"A recent survey found Bitcoin (BTC), Ether (ETH) and Dogecoin (DOGE) are the most sought-after crypto assets in the US. The organizer of the survey is Bakkt to more than 1,000 respondents. time to invest.#Bitcoin #ETH #Dogecoins #DOGE @elonmusk @IDEWAPUTUALITS1 @Tesla",0,1,IDEWAPUTUALITS1,22,1511852038518624256
40,Wed Apr 06 23:43:08 +0000 2022,"#bitcoin 40,000 $spy $442 ‚Ä¶.. mark it",0,0,sparkle6193920,17,1511852036320632833
41,Wed Apr 06 23:43:07 +0000 2022,If #bitcoin doesn‚Äôt hold 42.5k it‚Äôs gonna be very ugly,0,0,Gregouh0,116,1511852030960283650
42,Wed Apr 06 23:43:03 +0000 2022,Btc going üöÄ #BTC2022 #Bitcoin,0,0,obidelta,296,1511852013256122379
43,Wed Apr 06 23:43:02 +0000 2022,"22631) Current #Bitcoin Price is $43246 #BTC #Crypto
Indicators Daily:
RSI: 47.2
MA(20): 44607
MA(50): 41743
MA(200): 48239
Bollinger B. lower/upper: 40440/48774

#Ethereum Price is $3179 #ETH
RSI: 51.2
MA(20): 3211
MA(50): 2906
MA(200): 3487
BB: 2782/3641

#VAIOT Price: $0.052",0,0,LivePriceCrypto,348,1511852007430176774
44,Wed Apr 06 23:42:59 +0000 2022,"The world is going to shit in multiple ways, and in every avenue I can logically explain how it was caused by money manipulation. 

Without #Bitcoin the cycles repeat themselves.

Fuck NGU

I just want to pass on hope for the next generation.",0,0,BlueCollarBTC21,692,1511851994834628608
45,Wed Apr 06 23:42:47 +0000 2022,"#Crypto #Cryptocurrency #BTC #ETH #Solana #ADA #Bitcoin 

BTC = $43,422.29
Change = 5.19%

ETH = $3,194.75
Change = 7.02%

Solana = $1.07
Change = 9.29%

ADA = $115.53
Change = 9.38%

Follow @pricebotcrypto for hourly update!",0,0,pricebotcrypto,266,1511851948353499141
46,Wed Apr 06 23:42:46 +0000 2022,@fulmolightning @TheBitcoinConf The testicles will drop when #Bitcoin reaches $100K,0,0,thunder_meat,56,1511851942217142275
47,Wed Apr 06 23:42:38 +0000 2022,@degen_z Is $sats new #bitcoin by satoshi ser?,0,1,gnosticgoyal,4466,1511851909879312386
48,Wed Apr 06 23:42:29 +0000 2022,"#ETH - short alert ü§°ü•∂

Exchange     : FTX
Market         : $ETH - $PERP
Volume        : $3,391,938
Price            : $3179.6

$BTC #BTC $ETH #ETH",0,0,TraderWisdom,53428,1511851872113496066
49,Wed Apr 06 23:42:26 +0000 2022,"OVERSOLD  
 - ETH/USDT
 Price:3179.33000 
 Bollinger Bands ALERTS FifteenMinutes 
 Bollinger Bands Calculation: -4.47004
 #BTC #BCHABCTUSD #Bitcoin #RSƒ∞ #Bollinger -It is not investment advice. You can visit our profile for your own alarms. YTD. 2:42:07 AM",0,0,Cryptoinfo_AI,71,1511851859891347462
50,Wed Apr 06 23:42:18 +0000 2022,@BTC_LN @BitPay Backed by #btc in Perfect Competition,1,0,jicamet,692,1511851824625639435
51,Wed Apr 06 23:42:10 +0000 2022,BREAKING: Tennessee Titans become the first NFL team to accept #bitcoin as payment üôå,0,0,laurenjoeTrd,1050,1511851789347344388
52,Wed Apr 06 23:42:01 +0000 2022,‚ö†Ô∏è2013 - You missed #BTC‚ö†Ô∏è 2014 - You missed #DOGE‚ö†Ô∏è 2015 - You missed #XRP‚ö†Ô∏è 2016 - You missed #ETH‚ö†Ô∏è 2017 - You misse‚Ä¶,0,0,MattRob15863144,3,1511851753205276673
53,Wed Apr 06 23:42:01 +0000 2022,"22630) Current #Bitcoin Price is $43274 #BTC #Crypto
Indicators Daily:
RSI: 47.2
MA(20): 44607
MA(50): 41743
MA(200): 48239
Bollinger B. lower/upper: 40440/48774

#Ethereum Price is $3180 #ETH
RSI: 51.3
MA(20): 3212
MA(50): 2906
MA(200): 3487
BB: 2782/3641

#VAIOT Price: $0.052",0,0,LivePriceCrypto,348,1511851752575938569
54,Wed Apr 06 23:41:53 +0000 2022,"If anyone at #Bitcoin2022 is staying at the Nautilus and wants to have some drinks this evening I will be giving the bar proof of liver.

#Bitcoin",0,2,ColumbusBitcoin,740,1511851718811734018
55,Wed Apr 06 23:41:45 +0000 2022,@WallStreetSilv Use #bitcoin.  Come onnnnnn,0,0,gkatsuras84,84,1511851684246478854
56,Wed Apr 06 23:41:44 +0000 2022,üî¥ #BTC Liquidated Long: $33.9K at $43275.0,0,0,whale_alert_2,243,1511851680266084358
57,Wed Apr 06 23:41:44 +0000 2022,üî¥ #BTC Liquidated Long: $68.7K at $43254.70,0,0,whale_alert_2,243,1511851680220000264
58,Wed Apr 06 23:41:43 +0000 2022,üî¥ #BTC Liquidated Long: $25.3K at $43268.0,0,0,whale_alert_2,243,1511851678533885952
59,Wed Apr 06 23:41:43 +0000 2022,#BTC is now at $43295.67,0,0,getbitcoinprice,210,1511851676000473094
60,Wed Apr 06 23:41:40 +0000 2022,"I¬¥m giving 0.1 #btc #bitcoin to the first 1000 people who follows and retweets!! #cryptocurrency 
Drop your wallet",0,0,100OtrillionUSD,143,1511851663946317824
61,Wed Apr 06 23:41:38 +0000 2022,"Seeing price dump as @TheBitcoinConf kicks off is akin watching a crop of freshman football players show up wide-eyed &amp; bushy-tailed to 1st day of practice, only to see coach place a couple trashcans on either end of the track &amp; tell everyone to start running. üòâ #Bitcoin22 #BTC",0,3,blue_collarbtc,3894,1511851656165609472
62,Wed Apr 06 23:41:38 +0000 2022,We all know @PeterSchiff dislikes #Bitcoin. But he has never disparaged #litecoin. I suspect he loves it like he loves Silver. Peter do the Litecoin tweet.,0,0,Pat_McDermott17,41,1511851654844407809
63,Wed Apr 06 23:41:27 +0000 2022,Boring times in #Bitcoin it‚Äôs time to breathe &amp; üßò‚Äç‚ôÄÔ∏è!,0,0,Thebitblond,135,1511851609327816712
64,Wed Apr 06 23:41:21 +0000 2022,Is it time to buy the Dip yet ? #BTC,0,1,Boas_Official94,2366,1511851587194470401
65,Wed Apr 06 23:41:00 +0000 2022,"22629) Current #Bitcoin Price is $43298 #BTC #Crypto
Indicators Daily:
RSI: 47.2
MA(20): 44608
MA(50): 41744
MA(200): 48239
Bollinger B. lower/upper: 40442/48774

#Ethereum Price is $3182 #ETH
RSI: 51.4
MA(20): 3212
MA(50): 2906
MA(200): 3487
BB: 2782/3641

#VAIOT Price: $0.052",0,0,LivePriceCrypto,348,1511851497826488327
66,Wed Apr 06 23:40:43 +0000 2022,@TerkehhBsc welcomworld #Bitcoin @Ubuntu_OS,0,0,alyassinepar,6,1511851425936072709
67,Wed Apr 06 23:40:29 +0000 2022,"I'm curious on how the $BTC Conference is going?
No hate, no bad jokes, I'm really curious if it's going better than last year.

Anything exciting?
Anything new?

Only thing I don't like is I heard lots of @wef 
Folks there. 

#BTC
#Bitcoin #bitcoinconference2022",0,1,MarcoTheHEXican,2773,1511851367584911360
68,Wed Apr 06 23:40:16 +0000 2022,If the #Fed was a stock I would be a trillionaire. #ETH #Bitcoin @elonmusk,0,0,Idacrypto1,7,1511851313994240007
69,Wed Apr 06 23:40:13 +0000 2022,@SenWarren @uscapitol Baby we're crashing #bitcoin today!,0,0,BIockchainClown,22,1511851299033149444
70,Wed Apr 06 23:40:12 +0000 2022,"... there,"" Novogratz told the audience.

At 15:59 UTC, #BTC is trading at $44,138, down 
nearly 4% in a day. In a month, 
it has risen almost 15%, reducing its annual losses to less than 25%.

#news #crypto #CryptoNews #economy #finanace #tokenomics #buisness #investment",0,0,Queenofdefi,86,1511851297020030992
71,Wed Apr 06 23:40:12 +0000 2022,"... their assets in #BTC, he said.

When asked how high #bitcoin will ever go, Novogratz replied ""a million dollars.""

""I pray that the dollar stays strong and #bitcoin does not go to infinity. If bitcoin goes to infinity, it would mean that stability in the West is no 
longer...",0,0,Queenofdefi,86,1511851295665180672
72,Wed Apr 06 23:40:11 +0000 2022,"... he wants to preserve, Novogratz said.

""Once the #Fed takes a break, 
I think bitcoin will go to the moon,"" the investor added.

Continuing, Novogratz said of #bitcoin that ""it is much more important outside the U.S. than inside the U.S."" He argued that the US dollar has...",0,0,Queenofdefi,86,1511851292884410368
73,Wed Apr 06 23:40:06 +0000 2022,"#Binance Futures Liquidated On:

üî¥ $AAVE Worth 562,781 USDT
üî¥ $AUDIO Worth 233,239 USDT
üî¥ $SOL Worth 287,482 USDT
üîµ $BAKE Worth 134,494 USDT

#cryptocurrency #cryptotrading #AltCoins #BTC  26109682",0,0,AstrobluBot,256,1511851272869236738
74,Wed Apr 06 23:40:06 +0000 2022,"The latest #bitcoin block 730764 with 1224 transactions was just mined by F2Pool
Total Fees:0.04307778
Block Subsidy:6.25
#Bitcoin #BTC #blockchain #analysis",0,0,CmoBitcoin,397,1511851270109372422
75,Wed Apr 06 23:40:05 +0000 2022,"üü© Block 730764 ‚õè ‚õè

üìÖ 6th Apr 2022, 23:38:49 GMT

üì£ 1,224 tx with a value of 29,567.657 ‚Çø ($1.28b üá∫üá∏)

üì£ distributed to 3,934 recipients üíéüôå

üì£ 19,004,781.25 ‚Çø (90.49896%) mined ‚õè

üì£ 1,995,218.75 ‚Çø remaining üí∞

#bitcoin #tictoknextblock",0,0,tictoknextblock,214,1511851265092857858
76,Wed Apr 06 23:40:03 +0000 2022,"@CptHodl @popcornboii Start making amazing profit üí∞üíµ today from #BITCOIN investment, Join our platformüìäüì• now to make at least $2,500 BTC dailyüèÖ",0,0,ellajustinlee,65,1511851258541490177
77,Wed Apr 06 23:40:00 +0000 2022,"Top 10 #Cryptocurrency Live Prices: 
(07:40 PM . Apr 06,2022)

#BTC $43378.07
#ETH $3189.63
#BNB $422.48
#DOGE $0.14
#SHIB $0.0000245323
#AXS $53.73
#MANA $2.35
#UNI $10.11
#GM $0.0000260862
#KISHU $0.0000000015

Comments! Which coins would like to be listed?",0,0,StoreFiAi,768,1511851244553490447
78,Wed Apr 06 23:39:59 +0000 2022,"22628) Current #Bitcoin Price is $43311 #BTC #Crypto
Indicators Daily:
RSI: 47.4
MA(20): 44610
MA(50): 41744
MA(200): 48239
Bollinger B. lower/upper: 40447/48774

#Ethereum Price is $3183 #ETH
RSI: 51.3
MA(20): 3212
MA(50): 2906
MA(200): 3487
BB: 2782/3641

#VAIOT Price: $0.052",0,0,LivePriceCrypto,348,1511851243018280964
79,Wed Apr 06 23:39:59 +0000 2022,Whales fucking with #Bitcoin while Miami conference is on ü§£ üåô üîú üíπ,0,2,MemeBillionaire,3574,1511851240287879170
80,Wed Apr 06 23:39:56 +0000 2022,"üöÄüöÄüöÄ $1,279,500 BTCUSD LONGED @$43,292.9 on #Binance (23:39:56 UTC) #BTC #cryptocurrency",0,0,ExchangeWhales,2717,1511851229571338246
81,Wed Apr 06 23:39:49 +0000 2022,"Recipe for #bitcoin number go up;

1. Saylor stop announcing buys
2. Remove your laser eyes
3. Stop having embarassing #Bitcoin2022 style conferences",0,0,Bullbo_Baggins,33,1511851200211169283
82,Wed Apr 06 23:39:49 +0000 2022,"Yellen who was recognised for being a vocal opponent of #bitcoin is becoming less skeptical about the crypto space now.
‚Ä¢One of Israel's largest banks, Bank Leumi, will begin offering #cryptocurrencies trading.",0,0,OMichaelemex,524,1511851199192084480
83,Wed Apr 06 23:39:45 +0000 2022,"üöÄüöÄüöÄ $1,294,973 BTCUSDT LONGED @$43,300.00 on #Binance (23:39:45 UTC) #BTC #cryptocurrency",0,0,ExchangeWhales,2717,1511851184256167951
84,Wed Apr 06 23:39:43 +0000 2022,"üëã A new block was found on the #Bitcoin network. We're at block height 730764, current #bitcoin price is $43315.02 and there are 199519372690011 #sats left to mine.",0,0,satsleft,331,1511851176236617729
85,Wed Apr 06 23:39:38 +0000 2022,Current #Bitcoin Price is $43378 #BTC #Crypto,0,0,IAmBitcoinBot,888,1511851154249969670
86,Wed Apr 06 23:39:37 +0000 2022,"@BitcoinMagazine Start making amazing profit üí∞üíµ today from #BITCOIN investment, Join our platformüìäüì• now to make at least $2,500 BTC dailyüèÖ",0,0,ellajustinlee,65,1511851149581864966
87,Wed Apr 06 23:39:35 +0000 2022,@stablekwon You getting to buy large sums of #Bitcoin at a discount,0,0,rounakskm,54,1511851139561574404
88,Wed Apr 06 23:39:28 +0000 2022,"@GoingParabolic Sorry, it‚Äôs the overwhelming shilling.  Disappointing shift in focus driven by human emotion aka @TheBitcoinConf.

Thank goodness for the #Bitcoin protocol.",0,0,BitcoinOllie,820,1511851113586249735
89,Wed Apr 06 23:39:21 +0000 2022,@Mars_Hodl @nic__carter @TheBitcoinConf he'd be forgiven from the reports of rampant shitcoinery that I've heard at the #Bitcoin Miami conference .. please don't let the @bitcoinbushbash become so infected !,0,0,GazLarking,493,1511851083630620680
90,Wed Apr 06 23:39:14 +0000 2022,Market tremors may have worried #crypto investors with the price of #Bitcoin falling almost 6% overnight.,0,0,superheroaus,530,1511851052097695744
91,Wed Apr 06 23:39:13 +0000 2022,"Why do people keep saying there is such a thing as ‚Äúsupport‚Äù and ‚Äúresistance‚Äù with #Bitcoin?  If they exist, I‚Äôve never seen them.",0,0,KevinQuigley22,213,1511851049577070592
92,Wed Apr 06 23:39:12 +0000 2022,"$BTC is only relevant anymore because it's still holding on to its ""First Mover Advantage"" bullshit from a decade ago - but make no mistake - #Bitcoin is the biggest #SHITCOIN in #CRYPTO! WHY all these alts continue to follow this fat, bloated, pointless POS is beyond me!",0,0,jvTALK,112,1511851045034467328
93,Wed Apr 06 23:39:04 +0000 2022,#bitcoin get rekt by me and @SenWarren  we rekt Bitcoin together we stand,0,0,BIockchainClown,22,1511851012708990979
94,Wed Apr 06 23:38:59 +0000 2022,"22627) Current #Bitcoin Price is $43319 #BTC #Crypto
Indicators Daily:
RSI: 47.3
MA(20): 44609
MA(50): 41744
MA(200): 48239
Bollinger B. lower/upper: 40445/48774

#Ethereum Price is $3185 #ETH
RSI: 51.4
MA(20): 3212
MA(50): 2906
MA(200): 3487
BB: 2782/3641

#VAIOT Price: $0.053",0,0,LivePriceCrypto,348,1511850988273033222
95,Wed Apr 06 23:38:57 +0000 2022,"$AAPL is the only company with the power to end both the equity and crypto bear markets with a single move. 

Implementing Lightning Network on Apple Pay and adding #BTC to treasury.

Then all markets go üöÄüåï",0,0,tradewithbeans,25,1511850979586678799
96,Wed Apr 06 23:38:49 +0000 2022,"'I watched a three-hour documentary today about how bad #Bitcoin and especially NFTs are, to better put myself in the non crypto gamer's position.'

- @blockchaingosu, my apprentice and best real life friend since 26 years. He is gettin it!",0,1,cryptonator1337,35970,1511850948368515075
97,Wed Apr 06 23:38:44 +0000 2022,"Though 
@saylor
 didn‚Äôt create the words digital monetize energy‚Ä¶how he put them together 
will live on forever.  

My poetry for you today.
#Bitcoin - Git you‚Äôself some future energy.",0,1,ValantThor,163,1511850925895426056
98,Wed Apr 06 23:38:39 +0000 2022,@isabellasg3 @TheBitcoinConf Twin or wifey? No one knows!! So glad you‚Äôre back for year 2!! #bitcoin to the moon! üôåüèΩ‚ù§Ô∏è‚Äçüî•,0,1,JessicaVaugn,343991,1511850904126902275
99,Wed Apr 06 23:38:31 +0000 2022,Todays short looking so good I don‚Äôt wana pull out ü§ë keep chop chop chopping #BTC,0,0,Nickb356,289,1511850872627552257
100,Wed Apr 06 23:38:31 +0000 2022,@HeroDividend Don't buy #Bitcoin.,0,1,dakkygee,227,1511850871197470726
101,Wed Apr 06 23:38:19 +0000 2022,"BREAKING üí• UST stablecoin Terra buys over 5,000 #Bitcoin worth $200 MILLION üí•",0,0,Crypostunts,367,1511850822023348227
102,Wed Apr 06 23:38:16 +0000 2022,@Bitcoin going to $65k in July. #Bitcoin #HODL #Bitcoin,0,0,AlexG24028404,3,1511850810539270149
103,Wed Apr 06 23:38:16 +0000 2022,The project has valuable demand to developed for using best and unique and idealist ideas to groom this wonder project so hope this platform will be favorable and useful. #IKONIC #CRYPTO #BSC #BINANCE #BITCOIN,0,0,cedcosta10,9990,1511850809645887492
104,Wed Apr 06 23:38:07 +0000 2022,"‚ÄúCryptos‚Äù are companies (everything but #BTC)

#BTC is #BTC

So next year #BTC23 should be only #BTC. Nobody taking stage and ignorantly using the word ‚Äúcrypto‚Äù for #BTC or talking about other crap.

#Cryoto23 can be held in another location.

@FossGregfoss get them in line!!!",0,2,Bitcoin200T,210,1511850771087646731
105,Wed Apr 06 23:38:02 +0000 2022,Does anyone do a #Bitcoin only conference?,0,2,ChrissyK_Rez,700,1511850750695067651
106,Wed Apr 06 23:37:58 +0000 2022,"22626) Current #Bitcoin Price is $43307 #BTC #Crypto
Indicators Daily:
RSI: 47.4
MA(20): 44611
MA(50): 41745
MA(200): 48239
Bollinger B. lower/upper: 40448/48773

#Ethereum Price is $3183 #ETH
RSI: 51.5
MA(20): 3212
MA(50): 2906
MA(200): 3487
BB: 2783/3641

#VAIOT Price: $0.052",0,0,LivePriceCrypto,348,1511850733519396870
107,Wed Apr 06 23:37:52 +0000 2022,"DOWN  
 - BTC/USDT
 Price:43302.82000 
 RSI ALERTS OneHour 
 RSI Calculation: 18.45
 #BTC #NURUB #Bitcoin #RSƒ∞ #Bollinger -It is not investment advice. You can visit our profile for your own alarms. YTD. 2:37:37 AM",0,0,Cryptoinfo_AI,71,1511850706919120900
108,Wed Apr 06 23:37:50 +0000 2022,"@uba_en @TheBinanceNFT Good luck team! I believe this is a faithful project.The projector has a lot of attractions so hopefully the project will be better in the future and will be the best.
@Sheripk1
@ronils46
@luong_master
 #UBA #Airdrops #BSC #BNB #NFT #BTC #ETH #Cryptocurrency",0,0,sa_tara92,43,1511850701399363586
109,Wed Apr 06 23:37:41 +0000 2022,Spot #bitcoin ETF?,0,1,Lands_Bay,182,1511850662715441159
110,Wed Apr 06 23:37:34 +0000 2022,#Bitcoin IS RIGHT NOW $45.8KIF BTC BOUNCES TO $47K TODAY I WILL GIVE ONE OF MY FOLLOWERS $100 IN BTCI AM SO LONG RNüöÄüöÄüöÄ,0,0,MortimerFranci2,3,1511850632373747714
111,Wed Apr 06 23:37:25 +0000 2022,"Every time #Bitcoin comes down after I post a bearish setup, I lose a few of my coiner fans. Sad.",0,0,jfhksar88,3774,1511850597288652802
112,Wed Apr 06 23:37:24 +0000 2022,"why does everyone start shorting #BTC after we already dropped 10%?

finding majority have no brain",0,0,sexxypandagurl,0,1511850592993390599
113,Wed Apr 06 23:37:08 +0000 2022,"I am invested in multiple cryptos. 

#SAFEMOON
#Affinity 
#EverRise 
#EnhanceToken 
#BTC 
#LCP 
#ADA",0,4,BB_INVESTMENTS_,3862,1511850524819218434
114,Wed Apr 06 23:37:07 +0000 2022,"@OmaxToken If you had invested $1000 in any cryptocurrency 1 year ago, it would have been at least $10,000. Well #TRON You have deposited it, your money is only 500$ because justin is the plan of the global game #TRX is a story without a profit margin @justinsuntron #Bitcoin2022 #BTC #ETH",1,0,Kahraman_S_M_T_,1634,1511850520943767557
115,Wed Apr 06 23:37:03 +0000 2022,"Crypto market Overview

Dominance :40.95%
Money exiting Alts

#Bitcoin :$43,351.00 (-5.48%)
FEAR üìâ

Total Market :$2.10T (-6.13%)
FEAR üìâ

#Market wide üö®PANICüö®
Stick to your PLAN",1,0,DCA_Cryptoz,13517,1511850503436701696
116,Wed Apr 06 23:37:02 +0000 2022,"WANTED: Blockchain Developer to upgrade codebase and staking behaviour 
 üòΩ üíé üëç üíò  #Bitcoin #StakingSince2013",0,0,HoboNickels_HBN,1888,1511850497291997193
117,Wed Apr 06 23:37:00 +0000 2022,"In last 1 month, I have given short or long signal for every #btc pump or dump on Twitter publically all for free 
You don't need to join member's group to make profit",0,0,CryptooParadise,1,1511850489801228288
118,Wed Apr 06 23:36:58 +0000 2022,"Last prices updates: 

#BTC: $43,419.376 -0.73% üíî
#ETH: $3,194.192 -0.56% üíî
#USDT: $1.000 0.00% üíö
#BNB: $423.060 -0.54% üíî
#USDC: $0.999 -0.06% üíî
#LUNA: $108.089 0.33% üíö
#SOL: $115.532 -0.42% üíî
#XRP: $0.771 -0.30% üíî
#ADA: $1.067 -1.70% üíî
#HEX: $0.131 -1.80% üíî",0,0,Bifrost_Crypto,42,1511850481076875264
119,Wed Apr 06 23:36:57 +0000 2022,"22625) Current #Bitcoin Price is $43339 #BTC #Crypto
Indicators Daily:
RSI: 47.4
MA(20): 44611
MA(50): 41745
MA(200): 48239
Bollinger B. lower/upper: 40448/48774

#Ethereum Price is $3186 #ETH
RSI: 51.5
MA(20): 3212
MA(50): 2906
MA(200): 3487
BB: 2783/3641

#VAIOT Price: $0.052",0,0,LivePriceCrypto,348,1511850478702927873
120,Wed Apr 06 23:36:54 +0000 2022,@PhilWorthey @jameslavish @JeffBooth Great event Phil.  #btc,0,1,FossGregfoss,91401,1511850466593980421
121,Wed Apr 06 23:36:38 +0000 2022,"#Bitcoin Halving Cycle Analysis To me, it seems like #BTC is running out of time to play out another major run before‚Ä¶",0,0,PayneHodge1,3,1511850399011115018
122,Wed Apr 06 23:36:27 +0000 2022,@TheRealPlanC I feel blessed to be a part of this beautiful #Btc revolution sir,0,0,FlokitoValhalla,8999,1511850352404013059
123,Wed Apr 06 23:36:09 +0000 2022,"Top 5 #crypto prices with 30m change:

üî¥ $C98 #C98
üî¥ $GTC #GTC
üîµ $ZIL #ZIL
üî¥ $KLAY #KLAY

Do you #hodl any #BTC or these #AltCoins?  31606649",0,0,AstrobluBot,256,1511850278009647107
124,Wed Apr 06 23:36:07 +0000 2022,"The formation of such alliances as the quadripartite security dialogue and the Aukus , as well as the US sending modern weapons to regional allies, will only exacerbate regional instability and could lead to potential armed conflict.#Bucha #BTC #UCL",0,0,lengfen85506049,127,1511850267892977665
125,Wed Apr 06 23:36:04 +0000 2022,"@TheCryptoLark The fear of being scammed will slow you down in life. Everything involves risk, invest wisely and not greedily there are lots of investment opportunities out there. Hit me up let's start something. #Crypto #btc #ETH",0,0,charlescaseey,1361,1511850255767293953
126,Wed Apr 06 23:36:01 +0000 2022,"The crypto market is a real pull of the rug for those who don't study.

Stay Safe. #BTC $EGLD $ONE $ZEC $GALA $CRO",1,2,Quelbenvenuto,310,1511850243968712707
127,Wed Apr 06 23:35:57 +0000 2022,"@crypto Our analytical team has done a detailed analysis regarding #BTC, and its Fear and Greed Index is 55 - NEUTRAL at the moment with price of 43866.967392088829 usd, so what do you think about the current #Bitcoin state?",0,0,AltcoinFGI,4946,1511850227921260546
128,Wed Apr 06 23:35:57 +0000 2022,"@BscPitbull @LunarCrush @HuobiGlobal Start making amazing profit üí∞üíµ today from #BITCOIN investment, Join our platformüìäüì• now to make at least $2,500 BTC dailyüèÖ",0,0,ellajustinlee,65,1511850227464130565
129,Wed Apr 06 23:35:56 +0000 2022,"22624) Current #Bitcoin Price is $43356 #BTC #Crypto
Indicators Daily:
RSI: 47.5
MA(20): 44612
MA(50): 41745
MA(200): 48239
Bollinger B. lower/upper: 40450/48773

#Ethereum Price is $3188 #ETH
RSI: 51.6
MA(20): 3212
MA(50): 2906
MA(200): 3487
BB: 2783/3641

#VAIOT Price: $0.052",0,0,LivePriceCrypto,348,1511850223961784327
130,Wed Apr 06 23:35:55 +0000 2022,"@AirdropStario good project, hopefully in the future it can be even more successful for the team
@annasrsyd 
@echa_renatha 
@Ivanherdiana4 
#cryptocurrency #Airdrop #BSC #bitcoin #USDT #WINDMILL #AWMILL #Airdropstario",0,0,arsyilaza,45,1511850218949836800
131,Wed Apr 06 23:35:53 +0000 2022,"@HuobiGlobal @pandagirltoken #pandagirl #nft #nftart #giveaway #BTC #ADA #ETH soon minit nft 29.04 and colsed zero""s",0,1,rot99991563,11,1511850209134923790
132,Wed Apr 06 23:35:52 +0000 2022,"@MMCrypto not still , discount is 22k #btc",0,0,1stknightking,100,1511850207251730437
133,Wed Apr 06 23:35:52 +0000 2022,"Red market + missed launch cope of the people hit different jeez. Toxic AF. 

btw sleeping on the street now because I'm all in on a #btc long, once I nailed it I will buy back house, wife and car.",1,27,cryptoskullx,21104,1511850206966464515
134,Wed Apr 06 23:35:45 +0000 2022,"@MetawarOfficial Good project
#SANTOS #bitcoin #MINA
@cautionmekus 
@ezeh_kanayo 
@udayaAnna",0,0,Obi_obieze1,0,1511850175182131201
135,Wed Apr 06 23:35:44 +0000 2022,@DelCrxpto This is great news for all @EFTFanToken holders as our new rewards are #Bitcoin,0,0,TheSecretCrypto,335,1511850172225101828
136,Wed Apr 06 23:35:44 +0000 2022,üî¥ #BTC Liquidated Long: $37.3K at $43387.0,0,0,whale_alert_2,243,1511850170220228612
137,Wed Apr 06 23:35:44 +0000 2022,üî¥ #BTC Liquidated Long: $30.4K at $43388.0,0,0,whale_alert_2,243,1511850170215976961
138,Wed Apr 06 23:35:44 +0000 2022,üî¥ #BTC Liquidated Long: $34.7K at $43386.0,0,0,whale_alert_2,243,1511850170195058688
139,Wed Apr 06 23:35:43 +0000 2022,üî¥ #BTC Liquidated Long: $27.3K at $43392.0,0,0,whale_alert_2,243,1511850168550932480
140,Wed Apr 06 23:35:43 +0000 2022,üî¥ #BTC Liquidated Long: $50K at $43390.0,0,0,whale_alert_2,243,1511850168538308612
141,Wed Apr 06 23:35:39 +0000 2022,#BNBcoins future is on our hands. Hold on to it. Announcement of the next coin to be pumped will be done on telegram soon. Link is provided in the profile description #cryptopump #btc #coinpump #USDT #BNBcoins #Eth,0,0,pump_cryptos,1048,1511850152839065604
142,Wed Apr 06 23:35:38 +0000 2022,"@BitcoinMagazine What do you think about #Bitcoin state at the moment, because its Fear and Greed index is 55 - NEUTRAL with price of 43866.829245714692 usd? Our analytical team has done detailed #BTC research, but we want to hear your opinion too.",0,0,AltcoinFGI,4946,1511850146077806605
143,Wed Apr 06 23:35:31 +0000 2022,"@galactic_awake There‚Äôs no compare with this project. This project is really well and strong. I love this project and the projector peoples.üíû

@MdWahid96537670 
@mdridoyparves1
@MDARFANULISLAM8

#Airdrops #Bitcoin #AwakeInTheGalactic #AirdropDet #Crypto #Blockchain",0,0,MDHannan2752,33,1511850117137006597
144,Wed Apr 06 23:35:23 +0000 2022,#bitcoin Price prediction 42.5K Bitcoin is not a hedge you're not Bitcoin,0,0,BIockchainClown,22,1511850083842625541
145,Wed Apr 06 23:35:20 +0000 2022,@CashApp I will be happy with anything offered by this #bitcoin buffet! Thank you @CashApp $vashoden,0,0,Vashoden,30,1511850071414874112
146,Wed Apr 06 23:35:05 +0000 2022,"@HuobiGlobal Start making amazing profit üí∞üíµ today from #BITCOIN investment, Join our platformüìäüì• now to make at least $2,500 BTC dailyüèÖ",0,0,ellajustinlee,65,1511850007628025859
147,Wed Apr 06 23:35:04 +0000 2022,&lt;&lt;#BITCOIN DUMPING: IT‚Äôs A TRAP!&gt;&gt; - @MMCrypto,0,0,VisitoryGlobal,2206,1511850004989845506
148,Wed Apr 06 23:35:02 +0000 2022,"Be careful - I have my bullish scenario - but max pain is required

IMO the pain becomes too great to overcome at 42.2k - and #BTC fails",0,0,MadMoDiesel,292,1511849996701913089
149,Wed Apr 06 23:35:00 +0000 2022,"@AirdropDet continue to support until the moon don't give upDefinitely going to the moonüöÄüöÄüöÄ

#Airdrops #AwakeInTheGalactic #Bitcoin",0,0,Ahmad199309,38,1511849986988056578
150,Wed Apr 06 23:35:00 +0000 2022,"Top 10 #Cryptocurrency Live Prices: 
(07:35 PM . Apr 06,2022)

#BTC $43480.47
#ETH $3200.43
#BNB $423.85
#DOGE $0.14
#SHIB $0.0000246464
#AXS $54.04
#MANA $2.37
#UNI $10.15
#GM $0.0000261255
#KISHU $0.0000000015

Comments! Which coins would like to be listed?",0,0,StoreFiAi,768,1511849986400600068
151,Wed Apr 06 23:34:56 +0000 2022,"22623) Current #Bitcoin Price is $43376 #BTC #Crypto
Indicators Daily:
RSI: 47.6
MA(20): 44613
MA(50): 41746
MA(200): 48239
Bollinger B. lower/upper: 40453/48773

#Ethereum Price is $3190 #ETH
RSI: 51.8
MA(20): 3212
MA(50): 2906
MA(200): 3487
BB: 2783/3641

#VAIOT Price: $0.053",0,0,LivePriceCrypto,348,1511849969174650882
152,Wed Apr 06 23:34:52 +0000 2022,"@BitcoinMagazine Give me a BNB or ETH gift to build a good life. 

My wallet address üëáüëáüëáüëá

0x75E49461BFE808c247570Ed62308Aeb2eEF6fc7A

#whale #btc¬†¬† #Bitcoin¬†¬† #ElonMusk #gift #prize #God #BabyTigerKing #dogecoin #shibainu #Ethereum #BNB",0,0,Nariman_kazemi,1,1511849952162590731
153,Wed Apr 06 23:34:43 +0000 2022,"... like the #Fed's rate hikes.

""I think #bitcoin has performed amazingly well,"" Novogratz said.

He added that he believes 
Fed Chairman Jerome Powell ""realised he was behind the curve,"" and warned that he will likely be ""very hawkish"" for a while. Powell has a 
reputation...",0,0,Queenofdefi,86,1511849918159364096
154,Wed Apr 06 23:34:43 +0000 2022,"... Novogratz, CEO of 
#GalaxyDigital.

In a fireside chat with #BTC advocate and investor Anthony ""Pomp"" Pompliano at the Bitcoin 2022 conference in Miami on Wednesday, Novogratz said he's been impressed by bitcoin's recent performance, considering macroeconomic 
headwinds...",0,0,Queenofdefi,86,1511849916817100802
155,Wed Apr 06 23:34:42 +0000 2022,Bitcoin down to $ 43k range. -5.1% change in 24h.  #bitcoin #btc,0,0,btc_thousands,60,1511849911964344320
156,Wed Apr 06 23:34:38 +0000 2022,Current #Bitcoin Price is $43480 #BTC #Crypto,0,0,IAmBitcoinBot,888,1511849894180360192
157,Wed Apr 06 23:34:34 +0000 2022,"@rovercrc Give me a BNB or ETH gift to build a good life. 

My wallet address üëáüëáüëáüëá

0x75E49461BFE808c247570Ed62308Aeb2eEF6fc7A

#whale #btc¬†¬† #Bitcoin¬†¬† #ElonMusk #gift #prize #God #BabyTigerKing #dogecoin #shibainu #Ethereum #BNB",0,1,Nariman_kazemi,1,1511849877826899969
158,Wed Apr 06 23:34:32 +0000 2022,"ready to fly

‚úà technical goal
 OG USDT 
 üî•
OG
4. 00

4.111

4.138

4.211

4.286

4.322

üß∂Go
üü¢ üü¢ üü¢ üü¢
#og  #crypto #whale #btc #eth #DOCK $  #BTC  
#Bitcoin #„Éì„ÉÉ„Éà„Ç≥„Ç§„É≥ #BTC #BTCUSD #BTCUSDT #BTCJPY #‰ªÆÊÉ≥ÈÄöË≤® #ÊäïË≥á #Crypto #FX

#BTC
#BTC
#BTC
#BTC

#BTC

#B#BTC
#BTC
#BTC",0,0,K14571055,17,1511849869656342534
159,Wed Apr 06 23:34:28 +0000 2022,"@TrustWallet @cz_binance @APompliano Give me a BNB or ETH gift to build a good life. 

My wallet address üëáüëáüëáüëá

0x75E49461BFE808c247570Ed62308Aeb2eEF6fc7A

#whale #btc¬†¬† #Bitcoin¬†¬† #ElonMusk #gift #prize #God #BabyTigerKing #dogecoin #shibainu #Ethereum #BNB",0,0,Nariman_kazemi,1,1511849852782661633
160,Wed Apr 06 23:34:24 +0000 2022,"NFT UPDATE :

After @CryptoCannaClub , @commuNFT_y , @TheVisitorsNFT , @TheAquaverse , @Stramosinft @clubgorgon , I've added @nft_godz  to my collection üòé

HODL see you next year ‚úä

#Metaverse #NFTcollectibles #BTC #EGLD #Solana #ETH",0,0,Sni9er1,125,1511849836148150277
161,Wed Apr 06 23:34:23 +0000 2022,"@cz_binance @APompliano Give me a BNB or ETH gift to build a good life. 

My wallet address üëáüëáüëáüëá

0x75E49461BFE808c247570Ed62308Aeb2eEF6fc7A

#whale #btc¬†¬† #Bitcoin¬†¬† #ElonMusk #gift #prize #God #BabyTigerKing #dogecoin #shibainu #Ethereum #BNB",0,0,Nariman_kazemi,1,1511849833002418181
162,Wed Apr 06 23:34:18 +0000 2022,"Honest question, Who picked the #Bitcoin conference on the same day of a big FED‚Äôs meeting? 

What a logistical miscalculation ü§¶üèªü§∑üèª",1,6,bitcoin_whales,17921,1511849811191820289
163,Wed Apr 06 23:34:07 +0000 2022,"#ETC #Binance #PUMP

üìàAlert Currency PUMPüí∏üí∏üí∏
Crypto Coin symbol: $ETC #ETC

Do you #hodl any #BTC or these #AltCoins?
#Cryptocurrency 79088050",0,0,AstrobluBot,256,1511849763309772801
164,Wed Apr 06 23:34:06 +0000 2022,"The latest #bitcoin block 730763 with 406 transactions was just mined by F2Pool
Total Fees:0.01645129
Block Subsidy:6.25
#Bitcoin #BTC #blockchain #analysis",0,1,CmoBitcoin,397,1511849759182573570
165,Wed Apr 06 23:33:55 +0000 2022,"22622) Current #Bitcoin Price is $43379 #BTC #Crypto
Indicators Daily:
RSI: 47.6
MA(20): 44613
MA(50): 41746
MA(200): 48239
Bollinger B. lower/upper: 40453/48773

#Ethereum Price is $3190 #ETH
RSI: 51.9
MA(20): 3212
MA(50): 2906
MA(200): 3487
BB: 2783/3641

#VAIOT Price: $0.053",0,2,LivePriceCrypto,348,1511849714458710021
166,Wed Apr 06 23:33:47 +0000 2022,"#Bitcoin is down 3.99% for the day
#BTC is trading at $43,474.05 #USD 
For the week, $BTC is down 5.47%
For the month, up 16.9%
60 Days up 7.57%
90 Days up 2.97%
For the year down 27.32%
Year to Date down 7.86%
#Dominance 39.7%
#Crypto #Cryptonews #Cryptocurrency @Bitcoin",0,2,CryptoPolka,23690,1511849679516016644
167,Wed Apr 06 23:33:34 +0000 2022,"@BitcoinMagazine Give me a BNB or ETH gift to build a good life. 

My wallet address üëáüëáüëáüëá

0x75E49461BFE808c247570Ed62308Aeb2eEF6fc7A

#whale #btc¬†¬† #Bitcoin¬†¬† #ElonMusk #gift #prize #God #BabyTigerKing #dogecoin #shibainu #Ethereum #BNB",0,0,Nariman_kazemi,1,1511849626328051712
168,Wed Apr 06 23:33:32 +0000 2022,Apparently Germany üá©üá™ just seized 25 million in #bitcoin #shitcoin,0,1,Quintonm612,34,1511849618157576196
169,Wed Apr 06 23:33:27 +0000 2022,"@m_soond Average electrician here. CBDCs are the currency of autocracy! Fix the money, fix the world. #Bitcoin",0,2,FIX_THE_MONEY,97,1511849596686770183
170,Wed Apr 06 23:33:23 +0000 2022,"@WatcherGuru Give me a BNB or ETH gift to build a good life. 

My wallet address üëáüëáüëáüëá

0x75E49461BFE808c247570Ed62308Aeb2eEF6fc7A

#whale #btc¬†¬† #Bitcoin¬†¬† #ElonMusk #gift #prize #God #BabyTigerKing #dogecoin #shibainu #Ethereum #BNB",0,0,Nariman_kazemi,1,1511849581792923648
171,Wed Apr 06 23:33:09 +0000 2022,"@icebuild @whale_alert Give me a BNB or ETH gift to build a good life. 

My wallet address üëáüëáüëáüëá

0x75E49461BFE808c247570Ed62308Aeb2eEF6fc7A

#whale #btc¬†¬† #Bitcoin¬†¬† #ElonMusk #gift #prize #God #BabyTigerKing #dogecoin #shibainu #Ethereum #BNB",0,1,Nariman_kazemi,1,1511849520014974976
172,Wed Apr 06 23:32:58 +0000 2022,"@RazvanStanciu9 @whale_alert Give me a BNB or ETH gift to build a good life. 

My wallet address üëáüëáüëáüëá

0x75E49461BFE808c247570Ed62308Aeb2eEF6fc7A

#whale #btc¬†¬† #Bitcoin¬†¬† #ElonMusk #gift #prize #God #BabyTigerKing #dogecoin #shibainu #Ethereum #BNB",0,1,Nariman_kazemi,1,1511849476612399106
173,Wed Apr 06 23:32:57 +0000 2022,"#Crypto #Bitcoin Coronos Chain is on fire, and that‚Äôs because of #Croge, #CoronoApe and #CroshiInu. They will literally make billionaires in no time. Get involved ASAP.",0,0,Mukhtar14099461,8,1511849471268716546
174,Wed Apr 06 23:32:54 +0000 2022,"22621) Current #Bitcoin Price is $43411 #BTC #Crypto
Indicators Daily:
RSI: 47.6
MA(20): 44612
MA(50): 41745
MA(200): 48239
Bollinger B. lower/upper: 40452/48773

#Ethereum Price is $3196 #ETH
RSI: 51.7
MA(20): 3212
MA(50): 2906
MA(200): 3487
BB: 2783/3641

#VAIOT Price: $0.052",0,0,LivePriceCrypto,348,1511849459679993858
175,Wed Apr 06 23:32:49 +0000 2022,"@whale_alert Give me a BNB or ETH gift to build a good life. 

My wallet address üëáüëáüëáüëá

0x75E49461BFE808c247570Ed62308Aeb2eEF6fc7A

#whale #btc¬†¬† #Bitcoin¬†¬† #ElonMusk #gift #prize #God #BabyTigerKing #dogecoin #shibainu #Ethereum #BNB",0,0,Nariman_kazemi,1,1511849437915758597
176,Wed Apr 06 23:32:44 +0000 2022,@CashApp Sushi please $tomwasham #cashappbtcweek #bitcoin¬† üç±,0,0,TryItNowTrain,183,1511849416776429572
177,Wed Apr 06 23:32:37 +0000 2022,"üöÄüöÄüöÄ $929,857 BTCUSDT LONGED @$43,350.00 on #Bybit (23:32:37 UTC) #BTC #cryptocurrency",0,0,ExchangeWhales,2717,1511849387886059523
178,Wed Apr 06 23:32:27 +0000 2022,@cryptocom @pandagirltoken #pandagirl #nft #nftart #giveaway #BTC #ADA #ETH wait listing after minit nft 29.04,0,0,rot99991563,11,1511849345192275974
179,Wed Apr 06 23:32:26 +0000 2022,"@MMCrypto Are you asking #dogecoin holders? üôã‚Äç‚ôÇÔ∏è

#Bitcoin love me üö® üö® üö® üö® üö®",0,0,CryptoQQQQ,48,1511849341027176449
180,Wed Apr 06 23:32:13 +0000 2022,Who else turned the DCA up a notch today #bitcoin,0,2,joon_gemini,70,1511849287705112579
181,Wed Apr 06 23:32:06 +0000 2022,"#Cryptocurrency #ATA #Binance #DUMP

üìâAlert Currency DUMP
Crypto Coin symbol: $ATA #ATA

Do you #hodl any #BTC or these #AltCoins?
#Cryptocurrency  31277169",0,1,AstrobluBot,256,1511849256738557962
182,Wed Apr 06 23:32:03 +0000 2022,"@Cointelegraph What is your opinion about the current #Bitcoin state, since its Fear and Greed Index is 55 - NEUTRAL, with price of 43866.371667997044 usd? Our analytical team has done extended research regarding #BTC, but we want to hear your opinion also.",0,0,AltcoinFGI,4946,1511849247079084036
183,Wed Apr 06 23:32:03 +0000 2022,"üü© Block 730763 ‚õè ‚õè

üìÖ 6th Apr 2022, 23:31:00 GMT

üì£ 406 tx with a value of 1,403.850 ‚Çø ($61.04m üá∫üá∏)

üì£ distributed to 1,607 recipients üíéüôå

üì£ 19,004,775.00 ‚Çø (90.49893%) mined ‚õè

üì£ 1,995,225.00 ‚Çø remaining üí∞

#bitcoin #tictoknextblock",0,0,tictoknextblock,214,1511849243878694914
184,Wed Apr 06 23:31:56 +0000 2022,$RFDN is my favorite housing market crash signal! Get rekt just like #bitcoin,0,1,BIockchainClown,22,1511849216745771009
185,Wed Apr 06 23:31:53 +0000 2022,"22620) Current #Bitcoin Price is $43510 #BTC #Crypto
Indicators Daily:
RSI: 48.0
MA(20): 44619
MA(50): 41748
MA(200): 48240
Bollinger B. lower/upper: 40466/48772

#Ethereum Price is $3204 #ETH
RSI: 52.2
MA(20): 3212
MA(50): 2907
MA(200): 3487
BB: 2783/3642

#VAIOT Price: $0.052",0,1,LivePriceCrypto,348,1511849204817166336
186,Wed Apr 06 23:31:51 +0000 2022,"Remember when #Bitcoin conferences used to pump price? 

Good old times. Now every conference is for certain a nuke.",0,5,bitcoin_whales,17921,1511849194620813312
187,Wed Apr 06 23:31:46 +0000 2022,"üëã A new block was found on the #Bitcoin network. We're at block height 730763, current #bitcoin price is $43478.49 and there are 199519997690011 #sats left to mine.",0,0,satsleft,331,1511849172563116033
188,Wed Apr 06 23:31:43 +0000 2022,"Very few #bitcoin buyers rn; we tried to sell OTC today ‚Äî no takers, ended up market selling. Buyer beware.",0,2,Quinnvestments,18962,1511849162521858052
189,Wed Apr 06 23:31:37 +0000 2022,"The #cryptocurrency market is extending its losses for the day üëá

#Bitcoin $43,500 (-4.42%) üî¥
#Doge $0.14 (-16.67%) üî¥
#Ethereum $3,201 (-6.04%) üî¥
#Cardano $1.07 (-8.69%) üî¥
#XRP $0.77 (-5.46%) üî¥
#ETC $39.40 (-11.24%) üî¥",0,2,ad_investing22,121,1511849137968324616
190,Wed Apr 06 23:31:34 +0000 2022,"Is $BTC going to hold, head further down, or head to the upside? You tell us ü§óü§óü§ó #btc #bitcoin #Crypto #cryptocurrency #cryptotrading #CryptoNews #blockchain #blockchaintechnology #altcoin #ethereum #nft #nfts",2,4,BlumeCapital,15,1511849122822828039
191,Wed Apr 06 23:31:30 +0000 2022,@FEGtoken $FEG $ROX $USCT #SmartDeFi #Launchpad #BSCGem #FEG #trading #investing #Cryptocurrency #BTC¬†#ETH #Bitcoin¬†#Ethereum @FEGtoken ü¶çüöÄ,0,1,arryy12345,1155,1511849105420853248
192,Wed Apr 06 23:31:29 +0000 2022,Howdy @elonmusk are you interesting in @weare_satoshi #SATS ! I know you ‚ù§ #Bitcoin,0,1,PoorOldTimer,20,1511849102736195585
193,Wed Apr 06 23:31:17 +0000 2022,"@rovercrc The fear of being scammed will slow you down in life. Everything involves risk, invest wisely and not greedily there are lots of investment opportunities out there. Hit me up let's start something. #BTC #Crypto",0,0,charlescaseey,1361,1511849052706639873
194,Wed Apr 06 23:31:13 +0000 2022,"@jclcapital Breakout, pullback, #FED, Yanet Yellen, inflation, 0.5%, Apple wallet and #bitcoin?, recession and new world order.",0,1,MrNowhereowey,80,1511849035396784137
195,Wed Apr 06 23:31:06 +0000 2022,"The latest #bitcoin block 730762 with 551 transactions was just mined by Binance Pool
Total Fees:0.01595347
Block Subsidy:6.25
#Bitcoin #BTC #blockchain #analysis",0,1,CmoBitcoin,397,1511849004161769472
196,Wed Apr 06 23:31:01 +0000 2022,"@adamobrien_ @CTVNews @PierrePoilievre is the 1st politician that I want to endorse, not only for mentioning #Bitcoin &amp; #Blockchain, but also for his commentary on the history of money &amp; his interest in educating #Canadians about sound finances.  But, he's a politician...is his agenda legit?
We'll see",0,2,b2pLes,1012,1511848986793025537
197,Wed Apr 06 23:30:59 +0000 2022,"Can we get #BTC at $38,000?",0,0,LanreDemo,665,1511848976072515600
198,Wed Apr 06 23:30:55 +0000 2022,"I'd like to know your opinion on $BTC #bitcoin

Going to 30k or 50k??? #ethereum #ETH #crypto",0,0,Yara47265392,0,1511848958636740613
199,Wed Apr 06 23:30:53 +0000 2022,"22619) Current #Bitcoin Price is $43474 #BTC #Crypto
Indicators Daily:
RSI: 48.0
MA(20): 44619
MA(50): 41748
MA(200): 48240
Bollinger B. lower/upper: 40465/48772

#Ethereum Price is $3202 #ETH
RSI: 52.4
MA(20): 3213
MA(50): 2907
MA(200): 3487
BB: 2784/3642

#VAIOT Price: $0.052",0,0,LivePriceCrypto,348,1511848949988134915
200,Wed Apr 06 23:30:51 +0000 2022,@Cointelegraph #BTC ..can wait for the big spring to 50k..just a matter of time üöÄüöÄüöÄüî•üî•üî•,0,1,BrilloGP,787,1511848942039838723
201,Wed Apr 06 23:30:49 +0000 2022,"@lacetoken Great project, soon to the Moon
@Budis46505702 
@Budisan32051055 
@bayu_rahmadhi 

0x211879B70856E93be232E410B4Bb20ec4d0ECdC6

#AIRDROP #ICO #BITCOIN¬† #BLOCKCHAIN #TOKEN #GIVEAWAY #Ethereum #BNB",0,0,Njanks2,149,1511848936008720385
202,Wed Apr 06 23:30:41 +0000 2022,"The $SLP from @AxieInfinity is now at $0.02173 
üìâ Is down -1.059% compare to 1 hour ago
üìà and is up 6.305% compare to 1 week ago
 #BTC #ETH #SLP",0,1,GamesCoinsPrice,212,1511848903032946695
203,Wed Apr 06 23:30:35 +0000 2022,"@Cylumfinance Good project wish you all the best üëè‚ô•Ô∏è
#CYLUM #CYM #BNB #BSC #cryptocurrency #binance #BTC #ETH
@Jall 
@ELMoudenMoham17 
@ElMsiahMohamed1",0,0,ja_adi,5,1511848874259976207
204,Wed Apr 06 23:30:33 +0000 2022,"buy the dip, as usual #NFA #BTC",0,0,sudarshanshazi,16,1511848865665675265
205,Wed Apr 06 23:30:32 +0000 2022,@sovrynmindset @Breedlove22 @pierre_rochard @giacomozucco @TomerStrolight Read the book twice like most on my #Bitcoin book collection‚Ä¶,0,1,BitcoinAsHope,1018,1511848862746497025
206,Wed Apr 06 23:30:32 +0000 2022,"Cryptocurrency Market | Coin Prices [15m]
üîî #Bitcoin Price: $43500.02
üîî #Ethereum Price: $3203.17
üîî #Bnb Price: $424.4
üîî #Shib Price: $0.00002469
üîî #Doge Price: $0.1450
üîî #Avax Price: $84.50",0,0,coinactual,4926,1511848861513523200
207,Wed Apr 06 23:30:24 +0000 2022,"The U.S. Military Biological Program in Ukraine is similar to research conducted by the Unit 731 in the 1940s, when members of the Japanese military later fled to the United States to escape war crimes.#BTC #Bucha #UCL",0,0,lengfen85506049,127,1511848831423598595
208,Wed Apr 06 23:30:20 +0000 2022,"Dont be Surprised  if #Bitcoin drops down to 40k 

#crypto #altcoinseason #BitcoinCrash",0,0,XulTaiff,2408,1511848813413036036
209,Wed Apr 06 23:30:13 +0000 2022,@WatcherGuru #Bitcoin &amp; crypto. üòÜ,0,2,roobenel,134,1511848783251791876
210,Wed Apr 06 23:30:10 +0000 2022,"Top 5 #crypto prices with 30m change:

üü¢ $DUSK #DUSK
üü¢ $AVAX #AVAX
üî¥ $BLZ #BLZ
üü¢ $SAND #SAND

Do you #hodl any #BTC or these #AltCoins?  73373801",0,0,AstrobluBot,256,1511848769255530499
211,Wed Apr 06 23:30:06 +0000 2022,"üü© Block 730762 ‚õè ‚õè

üìÖ 6th Apr 2022, 23:28:42 GMT

üì£ 551 tx with a value of 1,170.649 ‚Çø ($50.91m üá∫üá∏)

üì£ distributed to 1,942 recipients üíéüôå

üì£ 19,004,768.75 ‚Çø (90.49890%) mined ‚õè

üì£ 1,995,231.25 ‚Çø remaining üí∞

#bitcoin #tictoknextblock",0,0,tictoknextblock,214,1511848753489395714
212,Wed Apr 06 23:30:03 +0000 2022,"üìà Total Market Cap: $1,999,815,547,645
üíµ 1 #BTC: $43,550.89
üî¥ BTC Dominance: 41.38%
üíπ 1 #ETH: $3,205.67
üíé ETH Dominance: 19.27%
‚è∞ Update Time: 07-04-2022 - 02:30:03 (GMT+3)",0,0,marketcapbot,4405,1511848742370091008
213,Wed Apr 06 23:30:03 +0000 2022,"[‚Çø] #Bitcoin Daily $BTC [‚Çø]

Kraken‚ùØ
A:$43,487 L:$43,211 H:$45,534
Bitstamp‚ùØ
A:$43,489 L:$43,087 H:$45,912
Bitfinex‚ùØ
A:$43,497 L:$43,242 H:$45,879

Market Cap: $826,388,018,395
24h Volume: $7,421,912,544
24h: -4.44%  7d: -14.54%",0,1,bakednet,522,1511848741879361539
214,Wed Apr 06 23:30:02 +0000 2022,"30 USD on #ElSalvador #BitcoinDay got you 63,900 sat. 
Now 63,900 sat are 27.78 USD (-7.39%)

1 BTC = 43,486.80 USD
1 USD = 2,300 Sat
on Wed 06 Apr 2022 06:30 PM CDT

1 BTC = 46,948.36 USD
1 USD = 2,130 sat
on Tue 07 Sep 2021 11:00 AM CDT

#Bitcoin",0,0,BitcoinDayIndex,374,1511848738385502213
215,Wed Apr 06 23:30:02 +0000 2022,"#BTC $43523  $BTC
#ETH $3203.89  $Eth
#BNB $424.46  $Bnb",0,0,Pricecrypt0,49,1511848736959471616
216,Wed Apr 06 23:30:02 +0000 2022,"30 USD en #ElSalvador #BitcoinDay te dieren 63,900 sat. 
Ahora 63,900 sat son 27.78 USD (-7.39%)

1 BTC = 43,486.80 USD
1 USD = 2,300 Sat
el 06 Apr 2022 06:30 PM CDT

1 BTC = 46,948.36 USD
1 USD = 2,130 sat
el Mar 07 Sep 2021 10:00 AM CST

#Bitcoin",0,0,BitcoinDayIndex,374,1511848736045117448
217,Wed Apr 06 23:30:01 +0000 2022,"@MMCrypto loss a lot, not sure how well he sleep tonight

#Bitcoin love me üö® üö® üö® üö® üö®",0,0,CryptoQQQQ,48,1511848734065192963
218,Wed Apr 06 23:30:00 +0000 2022,At one point we all laughed at electric cars. #bitcoin,0,0,500_headlines,138,1511848729921400833
219,Wed Apr 06 23:30:00 +0000 2022,"Top 10 #Cryptocurrency Live Prices: 
(07:30 PM . Apr 06,2022)

#BTC $43550.89
#ETH $3205.67
#BNB $424.83
#DOGE $0.15
#SHIB $0.0000246840
#AXS $54.31
#MANA $2.38
#UNI $10.18
#GM $0.0000261124
#KISHU $0.0000000015

Comments! Which coins would like to be listed?",0,0,StoreFiAi,768,1511848728671498242
220,Wed Apr 06 23:29:57 +0000 2022,"@tenjin3dnft @opensea Give me a BNB or ETH gift to build a good life. 

My wallet address üëáüëáüëáüëá

0x75E49461BFE808c247570Ed62308Aeb2eEF6fc7A

#whale #btc¬†¬† #Bitcoin¬†¬† #ElonMusk #gift #prize #God #BabyTigerKing #dogecoin #shibainu #Ethereum #BNB",0,1,Nariman_kazemi,1,1511848715090280448
221,Wed Apr 06 23:29:55 +0000 2022,@HodlingCarla That‚Äôs fine enough other people seem to be  selling #Bitcoin right now.,0,1,MichaelfeliFeli,110,1511848707649679363
222,Wed Apr 06 23:29:53 +0000 2022,"@BrutalBTC @CryptoWhale Give me a BNB or ETH gift to build a good life. 

My wallet address üëáüëáüëáüëá

0x75E49461BFE808c247570Ed62308Aeb2eEF6fc7A

#whale #btc¬†¬† #Bitcoin¬†¬† #ElonMusk #gift #prize #God #BabyTigerKing #dogecoin #shibainu #Ethereum #BNB",0,1,Nariman_kazemi,1,1511848698812289032
223,Wed Apr 06 23:29:52 +0000 2022,"22618) Current #Bitcoin Price is $43477 #BTC #Crypto
Indicators Daily:
RSI: 47.9
MA(20): 44617
MA(50): 41747
MA(200): 48240
Bollinger B. lower/upper: 40462/48772

#Ethereum Price is $3200 #ETH
RSI: 52.2
MA(20): 3213
MA(50): 2907
MA(200): 3487
BB: 2784/3642

#VAIOT Price: $0.052",0,0,LivePriceCrypto,348,1511848695238647811
224,Wed Apr 06 23:29:49 +0000 2022,Big news airdrop ü§© #Bitcoin #LATOKEN #airdrop $5000 in the tweet,0,0,Omart0ny,6,1511848682253164550
225,Wed Apr 06 23:29:42 +0000 2022,"@AirdropDet Thanks you so much. I am glad to This is excellent project for in this future with strong development team

 Thank you for the opportunity 

@Alim494563 @kibriaxp2
@Fariya241 @MdImran76216738
@kibriaxp2 @Rodela_ahamed

#Airdrops #AwakeInTheGalactic #Bitcoin",0,0,Shajhanxp35,109,1511848652394102785
226,Wed Apr 06 23:29:41 +0000 2022,@JustnThePhotog I literally stopped caring what #bitcoin is at. My portfolio has been high and low. Ill just keep buying when I can and sell profit when it makes sense. Itll all work out in the end üíµ #bigpicture #BTC #Crypto,0,5,CryptoJitt,169,1511848648275116037
227,Wed Apr 06 23:29:37 +0000 2022,Current #Bitcoin Price is $43551 #BTC #Crypto,0,0,IAmBitcoinBot,888,1511848633699774472
228,Wed Apr 06 23:29:36 +0000 2022,"@TrustWallet Give me a BNB or ETH gift to build a good life. 

My wallet address üëáüëáüëáüëá

0x75E49461BFE808c247570Ed62308Aeb2eEF6fc7A

#whale #btc¬†¬† #Bitcoin¬†¬† #ElonMusk #gift #prize #God #BabyTigerKing #dogecoin #shibainu #Ethereum #BNB",0,1,Nariman_kazemi,1,1511848626636607497
229,Wed Apr 06 23:29:35 +0000 2022,"$45.5k or $47k before more carnage? 

#Bitcoin",0,3,bitcoin_whales,17921,1511848624161845248
230,Wed Apr 06 23:29:32 +0000 2022,"@TrustWallet Give me a BNB or ETH gift to build a good life. 

My wallet address üëáüëáüëáüëá

0x75E49461BFE808c247570Ed62308Aeb2eEF6fc7A

#whale #btc¬†¬† #Bitcoin¬†¬† #ElonMusk #gift #prize #God #BabyTigerKing #dogecoin #shibainu #Ethereum #BNB",0,1,Nariman_kazemi,1,1511848613055549444
231,Wed Apr 06 23:29:31 +0000 2022,"@AirdropDet Looking very strong and intresting project Definitely it will get hug success in future..

Let's Joinüíôüíô

@saheb766
@ruhul00755 
@firoj0056  

#Airdrops #AwakeInTheGalactic  #Bitcoin",0,0,GopalKumarPaul2,78,1511848609335037952
232,Wed Apr 06 23:29:31 +0000 2022,#jasmy EOY 2022 Price Prediction ? $jasmy #bitcoin #doge #sol #luna #shib,1,3,UmitSpr,510,1511848605824565253
233,Wed Apr 06 23:29:30 +0000 2022,$BTC No reason to buy around these levels unless your scalping. We will see nice prices this year. #BTC #Bitcoin,0,0,BTCSNIP3R,53,1511848604213944328
234,Wed Apr 06 23:29:21 +0000 2022,"@whale_alert Give me a BNB or ETH gift to build a good life. 

My wallet address üëáüëáüëáüëá

0x75E49461BFE808c247570Ed62308Aeb2eEF6fc7A

#whale #btc¬†¬† #Bitcoin¬†¬† #ElonMusk #gift #prize #God #BabyTigerKing #dogecoin #shibainu #Ethereum #BNB",0,0,Nariman_kazemi,1,1511848567354400772
235,Wed Apr 06 23:29:20 +0000 2022,"Short #Bitcoin 
Big dump coming.",0,0,thisisthewayETH,805,1511848561956343808
236,Wed Apr 06 23:29:14 +0000 2022,"@whale_alert Give me a BNB or ETH gift to build a good life. 

My wallet address üëáüëáüëáüëá

0x75E49461BFE808c247570Ed62308Aeb2eEF6fc7A

#whale #btc¬†¬† #Bitcoin¬†¬† #ElonMusk #gift #prize #God #BabyTigerKing #dogecoin #shibainu #Ethereum #BNB",0,0,Nariman_kazemi,1,1511848537767690244
237,Wed Apr 06 23:29:11 +0000 2022,"üëã A new block was found on the #Bitcoin network. We're at block height 730762, current #bitcoin price is $43497.77 and there are 199520622690011 #sats left to mine.",0,0,satsleft,331,1511848525629382663
238,Wed Apr 06 23:29:10 +0000 2022,"@whale_alert Give me a BNB or ETH gift to build a good life. 

My wallet address üëáüëáüëáüëá

0x75E49461BFE808c247570Ed62308Aeb2eEF6fc7A

#whale #btc¬†¬† #Bitcoin¬†¬† #ElonMusk #gift #prize #God #BabyTigerKing #dogecoin #shibainu #Ethereum #BNB",0,0,Nariman_kazemi,1,1511848521087004672
239,Wed Apr 06 23:28:59 +0000 2022,"@KingDoggoXRP @BCBacker Give me a BNB or ETH gift to build a good life. 

My wallet address üëáüëáüëáüëá

0x75E49461BFE808c247570Ed62308Aeb2eEF6fc7A

#whale #btc¬†¬† #Bitcoin¬†¬† #ElonMusk #gift #prize #God #BabyTigerKing #dogecoin #shibainu #Ethereum #BNB",0,1,Nariman_kazemi,1,1511848474534457357
240,Wed Apr 06 23:28:55 +0000 2022,"@galactic_awake Thanks you so much. I am glad to This is excellent project for in this future with strong development team

 Thank you for the opportunity 

@Alim494563 
@Fariya241 @MdImran76216738
@kibriaxp2 @Rodela_ahamed

#Airdrops #Bitcoin #AwakeInTheGalactic #AirdropDet #Crypto #Blockchain",0,0,Shajhanxp35,109,1511848454892699648
241,Wed Apr 06 23:28:54 +0000 2022,"Great project. We develop together with Your project, develop and support it. We are happy to participate in this project. It's a very good idea #IKONIC #CRYPTO #BSC #BINANCE #BITCOIN",0,0,colinmurano,9983,1511848452422246400
242,Wed Apr 06 23:28:52 +0000 2022,"@whale_alert Give me a BNB or ETH gift to build a good life. 

My wallet address üëáüëáüëáüëá

0x75E49461BFE808c247570Ed62308Aeb2eEF6fc7A

#whale #btc¬†¬† #Bitcoin¬†¬† #ElonMusk #gift #prize #God #BabyTigerKing #dogecoin #shibainu #Ethereum #BNB",0,1,Nariman_kazemi,1,1511848445404983299
243,Wed Apr 06 23:28:51 +0000 2022,"22617) Current #Bitcoin Price is $43490 #BTC #Crypto
Indicators Daily:
RSI: 47.9
MA(20): 44617
MA(50): 41747
MA(200): 48240
Bollinger B. lower/upper: 40463/48772

#Ethereum Price is $3202 #ETH
RSI: 52.2
MA(20): 3213
MA(50): 2907
MA(200): 3487
BB: 2784/3642

#VAIOT Price: $0.052",0,0,LivePriceCrypto,348,1511848439654625280
244,Wed Apr 06 23:28:50 +0000 2022,"@CoinbaseCloud @coinbase @JoeLallouz @TwitterSpaces @PBWSummit If you had invested $1000 in any cryptocurrency 1 year ago, it would have been at least $10,000. Well #TRON You have deposited it, your money is only 500$ because justin is the plan of the global game #TRX is a story without a profit margin @justinsuntron #Bitcoin2022 #BTC #ETH",0,0,Kahraman_S_M_T_,1634,1511848436638830596
245,Wed Apr 06 23:28:45 +0000 2022,"I'd like to know your opinion on $BTC #bitcoin

Going to 30k or 50k??? #ethereum #ETH #crypto",0,0,Xenia01142944,3,1511848413851271178
246,Wed Apr 06 23:28:38 +0000 2022,We are headed into a season where we won't be able to stop winning even if we tried. #Bitcoin #altcoinseason #Crypto,0,1,Alexxx0000111,156,1511848383706808327
247,Wed Apr 06 23:28:06 +0000 2022,"@BitcoinMagazine @FrancisSuarez Give me a BNB or ETH gift to build a good life. 

My addressüëáüëáüëáüëá

0x75E49461BFE808c247570Ed62308Aeb2eEF6fc7A

#whale #btc¬†¬† #Bitcoin¬†¬† #ElonMusk #gift #prize #God #BabyTigerKing #dogecoin #shibainu #Ethereum #BNB",0,0,Nariman_kazemi,1,1511848249761665035
248,Wed Apr 06 23:28:06 +0000 2022,"The latest #bitcoin block 730761 with 349 transactions was just mined by Binance Pool
Total Fees:0.01497472
Block Subsidy:6.25
#Bitcoin #BTC #blockchain #analysis",0,0,CmoBitcoin,397,1511848249166110726
249,Wed Apr 06 23:27:57 +0000 2022,JUST IN: üèà Tennessee Titians become the first NFL team to accept #Bitcoin as a payment method.,2,4,BelBoyinc,772,1511848214206595082
250,Wed Apr 06 23:27:55 +0000 2022,#Bitcoin is the best way to protest,0,0,enafrydi,635,1511848204375109638
251,Wed Apr 06 23:27:54 +0000 2022,"@binance @trondao Give me a BNB or ETH gift to build a good life. 

My addressüëáüëáüëáüëá

0x75E49461BFE808c247570Ed62308Aeb2eEF6fc7A

#whale #btc¬†¬† #Bitcoin¬†¬† #ElonMusk #gift #prize #God #BabyTigerKing #dogecoin #shibainu #Ethereum #BNB",0,0,Nariman_kazemi,1,1511848201522925574
252,Wed Apr 06 23:27:51 +0000 2022,Turns out all the #Bitcoin maxi's can't go to Miami without selling. More poor than I thought.,0,0,crypto_tristan,373,1511848188453474305
253,Wed Apr 06 23:27:50 +0000 2022,"22616) Current #Bitcoin Price is $43537 #BTC #Crypto
Indicators Daily:
RSI: 48.1
MA(20): 44620
MA(50): 41748
MA(200): 48240
Bollinger B. lower/upper: 40467/48772

#Ethereum Price is $3207 #ETH
RSI: 52.3
MA(20): 3213
MA(50): 2907
MA(200): 3487
BB: 2784/3642

#VAIOT Price: $0.051",0,0,LivePriceCrypto,348,1511848185047793666
254,Wed Apr 06 23:27:50 +0000 2022,Hear me out . A-list #bitcoin er cage fighting  At next year's @TheBitcoinConf ?,0,2,El_Nakamoto,336,1511848183571181574
255,Wed Apr 06 23:27:48 +0000 2022,"@whale_alert Give me a BNB or ETH gift to build a good life. 

My addressüëáüëáüëáüëá

0x75E49461BFE808c247570Ed62308Aeb2eEF6fc7A

#whale #btc¬†¬† #Bitcoin¬†¬† #ElonMusk #gift #prize #God #BabyTigerKing #dogecoin #shibainu #Ethereum #BNB",0,0,Nariman_kazemi,1,1511848176101302276
256,Wed Apr 06 23:27:46 +0000 2022,Do me a favor #bitcoinmiami2022 can y‚Äôall please buy this dip ? #BTC,0,0,Flowslikeosmo,106,1511848166961954819
257,Wed Apr 06 23:27:45 +0000 2022,"The Pentagon's Biolab project in Ukraine includes the development of biological weapons that use bats carrying the plague, Leptospirosis, brucellosis and coronavirus and filovirus pathogens to transmit diseases.#BTC #Bucha #UCL",0,0,lengfen85506049,127,1511848164453765134
258,Wed Apr 06 23:27:45 +0000 2022,"@opensea @MagicEden Give me a BNB or ETH gift to build a good life. 

My addressüëáüëáüëáüëá

0x75E49461BFE808c247570Ed62308Aeb2eEF6fc7A

#whale #btc¬†¬† #Bitcoin¬†¬† #ElonMusk #gift #prize #God #BabyTigerKing #dogecoin #shibainu #Ethereum #BNB",0,0,Nariman_kazemi,1,1511848161031213061
259,Wed Apr 06 23:27:38 +0000 2022,"@cz_binance Give me a BNB or ETH gift to build a good life. 

My addressüëáüëáüëáüëá

0x75E49461BFE808c247570Ed62308Aeb2eEF6fc7A

#whale #btc¬†¬† #Bitcoin¬†¬† #ElonMusk #gift #prize #God #BabyTigerKing #dogecoin #shibainu #Ethereum #BNB",0,0,Nariman_kazemi,1,1511848133520764928
260,Wed Apr 06 23:27:35 +0000 2022,"@Remi_Tetot @astroport I‚Äôd like to do a deep dive in #LUNA like I did with #Bitcoin .. who are the saylors, pomp‚Äôs, etc.. of Luna? Where can I start? Thanks I‚Äôm advance",0,0,ja96184934,32,1511848120212246533
261,Wed Apr 06 23:27:18 +0000 2022,"@MMCrypto Give me a BNB or ETH gift to build a good life. 

My addressüëáüëáüëáüëá

0x75E49461BFE808c247570Ed62308Aeb2eEF6fc7A

#whale #btc¬†¬† #Bitcoin¬†¬† #ElonMusk #gift #prize #God #BabyTigerKing #dogecoin #shibainu #Ethereum #BNB",0,1,Nariman_kazemi,1,1511848047910825996
262,Wed Apr 06 23:27:09 +0000 2022,"@cz_binance Give me a BNB or ETH gift to build a good life. 

My addressüëáüëáüëáüëá

0x75E49461BFE808c247570Ed62308Aeb2eEF6fc7A

#whale #btc¬†¬† #Bitcoin¬†¬† #ElonMusk #gift #prize #God #BabyTigerKing #dogecoin #shibainu #Ethereum #BNB",0,1,Nariman_kazemi,1,1511848013408481280
263,Wed Apr 06 23:27:04 +0000 2022,"@youknowit5152 @cz_binance Give me a BNB or ETH gift to build a good life. 

My addressüëáüëáüëáüëá

0x75E49461BFE808c247570Ed62308Aeb2eEF6fc7A

#whale #btc¬†¬† #Bitcoin¬†¬† #ElonMusk #gift #prize #God #BabyTigerKing #dogecoin #shibainu #Ethereum #BNB",0,1,Nariman_kazemi,1,1511847992986382337
264,Wed Apr 06 23:27:03 +0000 2022,"üü© Block 730761 ‚õè ‚õè

üìÖ 6th Apr 2022, 23:25:40 GMT

üì£ 349 tx with a value of 1,135.662 ‚Çø ($49.46m üá∫üá∏)

üì£ distributed to 1,157 recipients üíéüôå

üì£ 19,004,762.50 ‚Çø (90.49887%) mined ‚õè

üì£ 1,995,237.50 ‚Çø remaining üí∞

#bitcoin #tictoknextblock",0,1,tictoknextblock,214,1511847985952718849
265,Wed Apr 06 23:26:58 +0000 2022,"@CryptoWhale Give me a BNB or ETH gift to build a good life. 

My addressüëáüëáüëáüëá

0x75E49461BFE808c247570Ed62308Aeb2eEF6fc7A

#whale #btc¬†¬† #Bitcoin¬†¬† #ElonMusk #gift #prize #God #BabyTigerKing #dogecoin #shibainu #Ethereum #BNB",0,1,Nariman_kazemi,1,1511847964209303559
266,Wed Apr 06 23:26:53 +0000 2022,@RewardHunters This is awesome projects #HOLD #Earn #passiveincome #BNB  #BTC #Binance  #BSCGem #NFTGame #GameaFi #nft,0,0,BIGWIN9999,79,1511847943657357314
267,Wed Apr 06 23:26:51 +0000 2022,"@whale_alert Give me a BNB or ETH gift to build a good life. 

My addressüëáüëáüëáüëá

0x75E49461BFE808c247570Ed62308Aeb2eEF6fc7A

#whale #btc¬†¬† #Bitcoin¬†¬† #ElonMusk #gift #prize #God #BabyTigerKing #dogecoin #shibainu #Ethereum #BNB",0,1,Nariman_kazemi,1,1511847936539430915
268,Wed Apr 06 23:26:50 +0000 2022,"22615) Current #Bitcoin Price is $43509 #BTC #Crypto
Indicators Daily:
RSI: 48.2
MA(20): 44621
MA(50): 41749
MA(200): 48240
Bollinger B. lower/upper: 40469/48772

#Ethereum Price is $3205 #ETH
RSI: 52.5
MA(20): 3213
MA(50): 2907
MA(200): 3487
BB: 2784/3642

#VAIOT Price: $0.051",0,0,LivePriceCrypto,348,1511847930298343424
269,Wed Apr 06 23:26:47 +0000 2022,"@BraulLauvane @whale_alert Give me a BNB or ETH gift to build a good life. 

My addressüëáüëáüëáüëá

0x75E49461BFE808c247570Ed62308Aeb2eEF6fc7A

#whale #btc¬†¬† #Bitcoin¬†¬† #ElonMusk #gift #prize #God #BabyTigerKing #dogecoin #shibainu #Ethereum #BNB",0,1,Nariman_kazemi,1,1511847921360199682
270,Wed Apr 06 23:26:45 +0000 2022,@GoingParabolic Wall street shorting #Bitcoin,0,0,traderfromph,383,1511847910056808448
271,Wed Apr 06 23:26:43 +0000 2022,"All markets included. All markets. We have three difficult months ahead of us.

  #BTC #GVR",0,0,almahaub,1992,1511847904268496914
272,Wed Apr 06 23:26:35 +0000 2022,"I'd like to know your opinion on $BTC #bitcoin

Going to 30k or 50k??? #ETH #nft #crypto",0,0,Willa10316819,1,1511847869338333186
273,Wed Apr 06 23:26:34 +0000 2022,"@whale_alert Give me a BNB or ETH gift to build a good life. 

My addressüëáüëáüëáüëá

0x75E49461BFE808c247570Ed62308Aeb2eEF6fc7A

#whale #btc¬†¬† #Bitcoin¬†¬† #ElonMusk #gift #prize #God #BabyTigerKing #dogecoin #shibainu #Ethereum #BNB",0,1,Nariman_kazemi,1,1511847866637160455
274,Wed Apr 06 23:26:28 +0000 2022,@MMCrypto @saylor #bitcoin is everyday buy the deep üí™,0,0,StrenghSearch,3106,1511847841664225283
275,Wed Apr 06 23:26:16 +0000 2022,"#bitcoin is a rollercoaster. 

Stake your capital in real world assets and let your money work for you.",1,6,DominiumFi,6461,1511847790166507520
276,Wed Apr 06 23:26:14 +0000 2022,The amount of relief rallies we have during bear market what about relief dump for the bears üêªü§∑üèΩ‚Äç‚ôÇÔ∏è just abit of false hopium ü§åüèæüòÇ #Bitcoin,0,0,_OnlyM__,31,1511847782109388801
277,Wed Apr 06 23:26:12 +0000 2022,But the dip dipshit! #Bitcoin2022 #BTC,0,0,BTCSLUT,5,1511847773674553351
278,Wed Apr 06 23:26:12 +0000 2022,"üëã A new block was found on the #Bitcoin network. We're at block height 730761, current #bitcoin price is $43470.29 and there are 199521247690011 #sats left to mine.",0,1,satsleft,331,1511847773645287428
279,Wed Apr 06 23:26:10 +0000 2022,Down to $43k already... WTF #Bitcoin?,0,0,The_Ring_Lord,70,1511847766145880065
280,Wed Apr 06 23:26:10 +0000 2022,Bougth #bitcoin  on this correction,0,0,karya_adhita,85,1511847764376055815
281,Wed Apr 06 23:26:07 +0000 2022,"#Bitcoin üìà 

‚ñì‚ñì‚ñì‚ñì‚ñì‚ñì‚ñì‚ñë‚ñë‚ñë‚ñë‚ñë‚ñë‚ñë‚ñë 44%

price:$43470.29      eth/btc: 0.07",0,0,alert_shark,1171,1511847753630076931
282,Wed Apr 06 23:26:06 +0000 2022,"#XMR #Binance #PUMP

üìàAlert Currency PUMPüí∏üí∏üí∏
Crypto Coin symbol: $XMR #XMR

Do you #hodl any #BTC or these #AltCoins?
#Cryptocurrency 41910323",0,0,AstrobluBot,256,1511847749020438531
283,Wed Apr 06 23:26:06 +0000 2022,"@ki_young_ju @TheBitcoinConf @DylanLeClair_ @_Checkmatey_ @WClementeIII @samjrule If you had invested $1000 in any cryptocurrency 1 year ago, it would have been at least $10,000. Well #TRON You have deposited it, your money is only 500$ because justin is the plan of the global game #TRX is a story without a profit margin @justinsuntron #Bitcoin2022 #BTC #ETH",0,0,Kahraman_S_M_T_,1634,1511847746344472579
284,Wed Apr 06 23:26:03 +0000 2022,"@immortalcatNFT #JaguarDAOFinance #Jaguar #BSC #AirdropKingNews
#HakuSwapAmbaMetaverse 
#BabyDogeDooDoo
#AutoAmplify 
#CYM #BNB #BSC #cryptocurrency #binance #BTC #ETH) and post Quote to
#in #drop #Defi #DUMGood project
@Maawad6
@MAAWADGHATFAN3
@MaawadGHatfan
@maawadg
#Clockx24 #UTK #Ethereum",0,0,FakerNajjar,26,1511847735498002433
285,Wed Apr 06 23:26:03 +0000 2022,#bitcoin is very bearish.,0,0,tinkawalker10,60,1511847733803757572
286,Wed Apr 06 23:25:58 +0000 2022,"@MartiniGuyYT #XEPüßøwill be here before you know it. Simply keep an eye on it, or get in early and add this currency to your portfolio as soon as possible so you don't have to regret it later! We're a little late for #BTC, but there will be alternatives, including XEP.
@ElectraProtocol",0,0,AkoSiTetsuya,504,1511847715634053123
287,Wed Apr 06 23:25:55 +0000 2022,@BrianRoemmele #BTC would have fixed this.,0,0,d1m9enG,153,1511847699888361484
288,Wed Apr 06 23:25:53 +0000 2022,"@FractalEncrypt @TheBitcoinConf If you had invested $1000 in any cryptocurrency 1 year ago, it would have been at least $10,000. Well #TRON You have deposited it, your money is only 500$ because justin is the plan of the global game #TRX is a story without a profit margin @justinsuntron #Bitcoin2022 #BTC #ETH",0,0,Kahraman_S_M_T_,1634,1511847691986378752
289,Wed Apr 06 23:25:49 +0000 2022,"@TheCryptoLark What do you think about the current #Bitcoin state, since its Fear and Greed Index is 55 - NEUTRAL at the moment, with price of 43866.531459232634 usd? Our analytical team has done a detailed analysis regarding #BTC, but we want to hear your opinion too.",0,0,AltcoinFGI,4946,1511847678556217352
290,Wed Apr 06 23:25:49 +0000 2022,"22614) Current #Bitcoin Price is $43461 #BTC #Crypto
Indicators Daily:
RSI: 47.9
MA(20): 44617
MA(50): 41747
MA(200): 48240
Bollinger B. lower/upper: 40462/48772

#Ethereum Price is $3200 #ETH
RSI: 52.2
MA(20): 3213
MA(50): 2907
MA(200): 3487
BB: 2783/3642

#VAIOT Price: $0.051",0,0,LivePriceCrypto,348,1511847675435573250
291,Wed Apr 06 23:25:46 +0000 2022,"@L0laL33tz @CryptoGrampy Unfortunately, privacy was abandoned in #Bitcoin long time ago because NGU seems to be more important.

That‚Äôs the reason #Monero was created in the first place.",0,0,cenan_ku,252,1511847662026477573
292,Wed Apr 06 23:25:42 +0000 2022,@Clownin0nEm @WatcherGuru I bought it when I was told they do accept #BTC ..and I was not carry cash up to the amount on my wallet.,0,2,willie_zeal,116,1511847648847880194
293,Wed Apr 06 23:25:35 +0000 2022,"The idea of Stable Progressive Currencies is to create a currency that continuously increase in value and never decrease in value.
#hotfriescoin is just that currency.
 #StableProgressiveCoin #onlyup #Airdrop  #bountycampaign #bitcoin #defi #Crypto #BSCGem #BSCGemsAlert #web3",0,0,DraffGrakula,5196,1511847616719605760
294,Wed Apr 06 23:25:24 +0000 2022,"Celum nice
#CYLUM #CYM #BNB #BSC #cryptocurrency #binance #BTC #ETH",0,0,haikal_leni,3,1511847572679585794
295,Wed Apr 06 23:25:20 +0000 2022,"@stacyherbert My respect for president @nayibbukele. He's working for the security  of the people of #BTC land.  There is Always Sunshine After the Storm.
The best is yet to come. 
#ELSALVADOR, is safer than most of the cites in USA. Canada, Europe, Asia, and the economy is 
getting  stronger.",1,1,Edtech4ultimate,237,1511847555642105859
296,Wed Apr 06 23:25:13 +0000 2022,"Yukio Hatoyama:The Need for justice involves the slaughter of hundreds of thousands of Iraqis and Afghans by US. It is also about the massacre in Nanjing by the Japanese Army,the killing by Ukrainian troops of pro-russian residents in the east,not just Russian troops #BTC #Bucha",0,0,lengfen85506049,127,1511847525665447937
297,Wed Apr 06 23:25:10 +0000 2022,"@RocketPenguin11 @mypethooligan @metahub01 platform it will give many gifts to the first 5K followers and NFT creators to be premium members üî•Follow Metahub page!

#Metahub #metaverse #OpenSeaNFT #OpenSeaCommunity  #Opensea #cryptocurrency #ETH #BTC #NFT #NFTCommunity #NFTGiveaway #NFTCollection #NFTMint",0,0,metahub01,615,1511847513321582594
298,Wed Apr 06 23:25:06 +0000 2022,"üü© Block 730760 ‚õè ‚õè

üìÖ 6th Apr 2022, 23:24:03 GMT

üì£ 2,946 tx with a value of 14,984.984 ‚Çø ($651.66m üá∫üá∏)

üì£ distributed to 9,158 recipients üíéüôå

üì£ 19,004,756.25 ‚Çø (90.49884%) mined ‚õè

üì£ 1,995,243.75 ‚Çø remaining üí∞

#bitcoin #tictoknextblock",0,0,tictoknextblock,214,1511847497047502849
299,Wed Apr 06 23:25:06 +0000 2022,"The latest #bitcoin block 730760 with 2946 transactions was just mined by Foundry USA
Total Fees:0.09457766
Block Subsidy:6.25
#Bitcoin #BTC #blockchain #analysis",0,0,CmoBitcoin,397,1511847495109951495
300,Wed Apr 06 23:25:00 +0000 2022,"Top 10 #Cryptocurrency Live Prices: 
(07:25 PM . Apr 06,2022)

#BTC $43523.32
#ETH $3202.93
#BNB $424.36
#DOGE $0.14
#SHIB $0.0000246555
#AXS $54.27
#MANA $2.37
#UNI $10.16
#GM $0.0000260319
#KISHU $0.0000000015

Comments! Which coins would like to be listed?",0,0,StoreFiAi,768,1511847470023774212
301,Wed Apr 06 23:24:56 +0000 2022,"@damhack @ascii_x341963 @JohnReedStark If I agree to give me goods and service for #bitcoin, why can the government stop me? It‚Äôs none of their business",0,0,Rekttrading8,6,1511847453464485890
302,Wed Apr 06 23:24:54 +0000 2022,"üì£ Curated Coin Metrics every 15mins üì£

#BTC  |  43474 USD  |  -4.9% 

Mrkt Dominance:  41.8% 

Txn Vol:  13.315B

Active Addresses:  952.2K

TVL:  164.4M",0,0,InfoDoge2,16,1511847447072579589
303,Wed Apr 06 23:24:52 +0000 2022,"1. #blockchain is a technology that enables secure, transparent and tamper-proof transactions. 2. It is the backbone of cryptocurrencies like #bitcoin and #ethereum. 3. It is becoming increasingly popular for businesses due to its many benefits, such as security, transparency and",0,0,NftSolanaCap,163,1511847437702467587
304,Wed Apr 06 23:24:48 +0000 2022,"üëã A new block was found on the #Bitcoin network. We're at block height 730760, current #bitcoin price is $43500.01 and there are 199521872690011 #sats left to mine.",0,0,satsleft,331,1511847420820430859
305,Wed Apr 06 23:24:48 +0000 2022,"22613) Current #Bitcoin Price is $43493 #BTC #Crypto
Indicators Daily:
RSI: 48.0
MA(20): 44618
MA(50): 41748
MA(200): 48240
Bollinger B. lower/upper: 40464/48772

#Ethereum Price is $3203 #ETH
RSI: 52.3
MA(20): 3213
MA(50): 2907
MA(200): 3487
BB: 2784/3642

#VAIOT Price: $0.051",0,0,LivePriceCrypto,348,1511847420539269127
306,Wed Apr 06 23:24:40 +0000 2022,"@web3_coin Good Project #DOGE #bitcoin #airdrop @JonnEpperson666
 
@Katrice95716040

@Elenor74921672",0,1,Selina89558590,39,1511847386703929344
307,Wed Apr 06 23:24:37 +0000 2022,@BitcoinMagazine #BTC #FOMO incoming. #HODL hard on your cryptos üíéüíéüíéüíïüíïüíï,0,1,BrilloGP,787,1511847376327090177
308,Wed Apr 06 23:24:37 +0000 2022,Current #Bitcoin Price is $43523 #BTC #Crypto,0,0,IAmBitcoinBot,888,1511847373693091843
309,Wed Apr 06 23:24:33 +0000 2022,Happy Bitcoin Conference day! #Bitcoin #Hodl,0,0,MacLellanM27,548,1511847359252418560
310,Wed Apr 06 23:24:25 +0000 2022,"@etherweather Happy birthday üéÇ

#bitcoin minus 5 percent for your special day so far!

What a gift!",0,1,EthereumPredict,644,1511847326129831941
311,Wed Apr 06 23:24:25 +0000 2022,"I'd like to know your opinion on $BTC #bitcoin

Going to 30k or 50k??? #ETH #crypto #nft",0,0,Wendy79936696,1,1511847325139935233
312,Wed Apr 06 23:24:22 +0000 2022,@RicardoBSalinas @Atoms representing again. Why everyone flexing the @Atoms #Bitcoin shoes that I can‚Äôt get my hands on and no one representing the @Atoms brand on their posts. I‚Äôm a big fan of @Atoms and wear the blacked out pair almost everyday.,0,1,HodlDogCrypto,61,1511847309641924616
313,Wed Apr 06 23:24:18 +0000 2022,"@TheNobelSoul @TheBitcoinConf @nayibbukele Man, since the very moment you are not welcome means that you are doing something wrong... is not because of #bitcoin legalization is due to constitutional violations and constact attacks to democracy...",0,0,RDMontano23,387,1511847292927717379
314,Wed Apr 06 23:24:14 +0000 2022,"üöÄüí∏ Wed, 06 Apr 2022 23:24:14 GMT - TOP 10 - $BTC: $43,490.00 -0.75% | $ETH: $3,200.68 -0.69% | $USDT: $1.00 | $BNB: $424.10 -0.54% | $USDC: $1.00 | $XRP: $0.77 -0.5% | $LUNA: $108.01 +0.14% | $SOL: $115.98 -0.96% | $ADA: $1.07 -1.74% | $AVAX: $84.36 -0.64% | #bitcoin",0,0,everyhourcrypto,38,1511847278096658435
315,Wed Apr 06 23:24:13 +0000 2022,"@UnqiueArtsGirl @opensea @metahub01 platform it will give many gifts to the first 5K followers and NFT creators to be premium members üî•Follow Metahub page!

#Metahub #metaverse #OpenSeaNFT #OpenSeaCommunity  #Opensea #cryptocurrency #ETH #BTC #NFT #NFTCommunity #NFTGiveaway #NFTCollection #NFTMint",0,0,metahub01,615,1511847272140656642
316,Wed Apr 06 23:24:05 +0000 2022,"Twitter #Crypto Trending Report!

üü¢ Trending 15m: $ZEC, $LIT, $LUNA, $SNX
üü¢ Trending 1H: $YFI, $ETH, $COMP, $ENS
üî¥ Trending 4H: $SUSHI, $DOGE, $DUSK, $NEAR
üî¥ Trending 1D: $UNI, $RAY, $REN, $TRB

Do you #hodl any #BTC or these #AltCoins?  59003581",0,0,AstrobluBot,256,1511847242239414277
317,Wed Apr 06 23:24:05 +0000 2022,@Cylumfinance Nice #CYLUM #CYM #BNB #BSC #cryptocurrency #binance #BTC #ETH,0,0,haikal_leni,3,1511847240281001987
318,Wed Apr 06 23:23:54 +0000 2022,"@apenftorg @justinsuntron If you had invested $1000 in any cryptocurrency 1 year ago, it would have been at least $10,000. Well #TRON You have deposited it, your money is only 500$ because justin is the plan of the global game #TRX is a story without a profit margin @justinsuntron #Bitcoin2022 #BTC #ETH",0,0,Kahraman_S_M_T_,1634,1511847195657527301
319,Wed Apr 06 23:23:54 +0000 2022,It is always seen that the rate of #btc decreases after #MicroStrategy buying #bitcoin. Anybody know the reason? Does #Michaelsaylor scaming with the public?,0,0,RightChanger,3,1511847195628167176
320,Wed Apr 06 23:23:48 +0000 2022,"@binance @justinsuntron @trondao If you had invested $1000 in any cryptocurrency 1 year ago, it would have been at least $10,000. Well #TRON You have deposited it, your money is only 500$ because justin is the plan of the global game #TRX is a story without a profit margin @justinsuntron #Bitcoin2022 #BTC #ETH",0,0,Kahraman_S_M_T_,1634,1511847169703223300
321,Wed Apr 06 23:23:47 +0000 2022,"22612) Current #Bitcoin Price is $43508 #BTC #Crypto
Indicators Daily:
RSI: 48.1
MA(20): 44620
MA(50): 41749
MA(200): 48240
Bollinger B. lower/upper: 40469/48772

#Ethereum Price is $3205 #ETH
RSI: 52.5
MA(20): 3213
MA(50): 2907
MA(200): 3487
BB: 2784/3642

#VAIOT Price: $0.051",0,0,LivePriceCrypto,348,1511847165622198274
322,Wed Apr 06 23:23:46 +0000 2022,"@Cointelegraph Our analytical team has done a detailed analysis regarding #BTC, and its Fear and Greed Index is 55 - NEUTRAL at the moment with price of 43866.752422247994 usd, so what do you think about the current #Bitcoin state?",0,0,AltcoinFGI,4946,1511847162132545544
323,Wed Apr 06 23:23:37 +0000 2022,69k was the top. #Bitcoin,0,1,thisisthewayETH,805,1511847122030809088
324,Wed Apr 06 23:23:33 +0000 2022,Tell me the best thing about the #bitcoin conference so far! Go! ü§ó,0,0,FriedaHodl,616,1511847105194733574
325,Wed Apr 06 23:23:31 +0000 2022,"For every dollar spent, it first gets speculated on (traded) 96 times

For every barrel of oil refined, it gets speculated on 31 times

For every bitcoin spent, it gets speculated on only 2.5 times

Turns out #Bitcoin isn't all that speculative 

- slide from #bitcoin2022",1,3,danajwright_,833,1511847096193744897
326,Wed Apr 06 23:23:21 +0000 2022,"@EthaxCrypto  is phenomenal and customer driven... Wanting to solve traders challenge. I believe the project will definitely make a name for herself in the crypto space

#Defi #ethax #ethaxcrypto #ethaxtoken #Dex #cryptocurrency #ethereum #BinanceSmartChain #Bitcoin",0,0,AbayoOpeoluwa,1162,1511847053869174793
327,Wed Apr 06 23:23:18 +0000 2022,#bitcoin is dying. Keep eating your shit .,0,1,EthereumPredict,644,1511847042661953539
328,Wed Apr 06 23:23:18 +0000 2022,@GhostOfNakadai PERFECT NARRATIVE FOR SCAMMERS LIKE PAMP AND BRUNELL TO RUN A COURSE FOR A-LISTER WOMEN IN #BITCOIN,0,1,bitcoinordeath,1627,1511847041387102208
329,Wed Apr 06 23:23:07 +0000 2022,"Big institutions are buying and you are selling? How you are intelligent?
#BTC #ETH #BNB",0,0,holdthiscrypto,117,1511846995111022594
330,Wed Apr 06 23:23:05 +0000 2022,"@goodfortuneNFT @ClassyKangaroos @metahub01 platform it will give many gifts to the first 5K followers and NFT creators to be premium members üî•Follow Metahub page!

#Metahub #metaverse #OpenSeaNFT #OpenSeaCommunity  #Opensea #cryptocurrency #ETH #BTC #NFT #NFTCommunity #NFTGiveaway #NFTCollection #NFTMint",0,1,metahub01,615,1511846988945530887
331,Wed Apr 06 23:23:02 +0000 2022,@DocumentingBTC Accepting #bitcoin means nothing if they turn around and sell. Let us know when they're stacking for their treasuries,0,0,cubanjulioneira,503,1511846975284690950
332,Wed Apr 06 23:22:53 +0000 2022,New boss is here @elonmusk #web3.0 #Bitcoin2022 #bitcoin #twitterfairlatform,0,0,harvinltc,42,1511846937493966850
333,Wed Apr 06 23:22:46 +0000 2022,"22611) Current #Bitcoin Price is $43508 #BTC #Crypto
Indicators Daily:
RSI: 48.1
MA(20): 44620
MA(50): 41748
MA(200): 48240
Bollinger B. lower/upper: 40467/48772

#Ethereum Price is $3205 #ETH
RSI: 52.4
MA(20): 3213
MA(50): 2907
MA(200): 3487
BB: 2784/3642

#VAIOT Price: $0.051",0,0,LivePriceCrypto,348,1511846910839209994
334,Wed Apr 06 23:22:45 +0000 2022,"@BrianRoemmele Can he speak Empathy in all of #Bitcoin code, if not isn't he just a Parler Trick...

Immutable Empathy Matters #BTC",0,0,ConstructnRates,913,1511846902878425089
335,Wed Apr 06 23:22:34 +0000 2022,"Despite Saylor buying $100s of millions of #Bitcoin, $BTC continues to struggle. Old outdated technology limited in Transactions per second  with colossal waste of energy will never be what maxis envision it to be. There will be an non fiat winner but Bitcoin isn‚Äôt it.",0,0,rahulajain,448,1511846859945484288
336,Wed Apr 06 23:22:25 +0000 2022,"@Cylumfinance Good project 1000√ó
#CYLUM #CYM #BNB #BSC #cryptocurrency #binance #BTC #ETH",0,0,kriptokolix,2,1511846820967763970
337,Wed Apr 06 23:22:25 +0000 2022,"ETHAX service will allow any users to buy, sell, or swap ETHAX Tokens or any other major crypto currency at the lowest possible market fees.

#Defi #ethax #ethaxcrypto #ethaxtoken #Dex #cryptocurrency #ethereum #BinanceSmartChain #Bitcoin",0,0,AbayoOpeoluwa,1162,1511846820569358341
338,Wed Apr 06 23:22:24 +0000 2022,This #BTC daily close is going to be gross,0,0,AnPengwin,13,1511846818317021184
339,Wed Apr 06 23:22:23 +0000 2022,Would you want to earn #cryptocurrency while spreading kindness? #BTC $BTC #ETH $ETH #SOL $SOL,0,0,kinektsocial,4,1511846813011128323
340,Wed Apr 06 23:22:21 +0000 2022,@CrowCoinCRO $Crow it‚Äôs just the beginning üíéüíéDON‚ÄôT miss this chance üíéüíéüíé  @CrowCoinCro #CRO¬†¬†¬† #crofam¬†¬†¬†¬†¬†¬†¬†¬†¬†¬†¬†¬†¬†¬†¬†¬†#CronosChain #Croge #CROKI $Zil #shiba #crowcoin #shiba #cryptocurrecy #CoinMarketCap #CoinGecko #CMC #Dextools #MMFinance #moonshot $doge $Bci #btc¬†¬†¬†¬†¬†¬†¬† #MEMECONOMY,1,1,_W_aHa_M_,55,1511846803813060609
341,Wed Apr 06 23:22:19 +0000 2022,"$BTC #Bitcoin  went for a strong BULLISH impulse move everytime when more than 95000 Bitcoin were removed from exchanges in 30 days 

This happened again a few days ago üî•üî• ‚ùó",0,0,matutu22,29,1511846795709906945
342,Wed Apr 06 23:22:18 +0000 2022,"@packers you need to get on the #bitcoin train and start accepting it for payments! @Titans are the first @NFL team, but won‚Äôt be the last!",0,0,crypto_kid2021,165,1511846792341696526
343,Wed Apr 06 23:22:18 +0000 2022,It was sign why my job couldn't pay me today #bitcoin is going LOWER,0,0,BIockchainClown,22,1511846792328986629
344,Wed Apr 06 23:22:14 +0000 2022,"The third largest whale just added 59 #BTC to her/his/their wallet today at a price of USD 43,626.81 #Bitcoin",0,0,lo2_tokyo,33,1511846773530132482
345,Wed Apr 06 23:22:13 +0000 2022,"Why aren't there any upside down charts today? Hello?
#bitcoin",0,0,clodcd,16,1511846769109479428
346,Wed Apr 06 23:22:06 +0000 2022,@litcapital Of course. #Bitcoin.üî•üî•üî•üî•üî•üî•üëäüëäüëäüëäüëäüëä,0,0,B_HODLer001,153,1511846740093243400
347,Wed Apr 06 23:22:06 +0000 2022,"#Cryptocurrency #IOST #Binance #DUMP

üìâAlert Currency DUMP
Crypto Coin symbol: $IOST #IOST

Do you #hodl any #BTC or these #AltCoins?
#Cryptocurrency  35656497",0,0,AstrobluBot,256,1511846739212443648
348,Wed Apr 06 23:22:03 +0000 2022,"#Bitcoin supply audit!
Total #Bitcoins mined till date: 19004543.79247566
Total Supply: 20,999,999.9769
#Bitcoin supply remaining:1995456.1844243407
Percentage in circulation:90.4978%
#Bitcoin #BTC #blockchain #mining #analysis",1,0,CmoBitcoin,397,1511846727598362628
349,Wed Apr 06 23:22:02 +0000 2022,"#Crypto is all about scalping, retweet if you agree.
#cryptocurrency #BTC",0,0,sufinoumanriaz,100,1511846724121280521
350,Wed Apr 06 23:22:01 +0000 2022,"@AltcoinDailyio What do you think about #Bitcoin state at the moment, because its Fear and Greed index is 55 - NEUTRAL with price of 43866.606352973559 usd? Our analytical team has done detailed #BTC research, but we want to hear your opinion too.",0,0,AltcoinFGI,4946,1511846720354795532
351,Wed Apr 06 23:22:00 +0000 2022,@VitalikButerin @pandagirltoken #pandagirl #nft #nftart #giveaway #BTC #ADA #ETH it's moon after 29.04. 29.04 will minit nft,1,1,rot99991563,11,1511846713929125893
352,Wed Apr 06 23:21:57 +0000 2022,"@ApeCoin_Airdrop #Bitcoin #eth #bnb 
0xBfA52B8A3B9830f8a5a937AB3d2bF766530A9250
0xBfA52B8A3B9830f8a5a937AB3d2bF766530A9250",0,0,ItthoJustdo,3,1511846703476916230
353,Wed Apr 06 23:21:56 +0000 2022,Just remember anything between $29k and $48k is HOGWASH. It‚Äôs volatility. It means shit! If we break $29k WERE FUCKED! If we break $48k WERE GOLDEN #BTC,0,0,dan__crypto,684,1511846698775064580
354,Wed Apr 06 23:21:54 +0000 2022,"ETHAX is developing its own decentralised exchange called the ETHAXSWAP Exchange; this is a non-custodial, Decentralised Exchange (DEX) built by ETHAX Technology. 

#Defi #ethax #ethaxcrypto #ethaxtoken #Dex #cryptocurrency #ethereum #BinanceSmartChain #Bitcoin",0,0,AbayoOpeoluwa,1162,1511846692194291718
355,Wed Apr 06 23:21:51 +0000 2022,"@immortalcatNFT #JaguarDAOFinance #Jaguar #BSC #AirdropKingNews
#HakuSwataverse 
#BabyDogeDooDoo
#AutoAmplify 
#CYM #BNB #BSC #cryptocurrency #binance #BTC #ETH) and post Quote to
#in #drop #Defi #DUMGood project
@Maawad6
@MAAWADGHATFAN3
@MaawadGHatfan
@maawadg
#Clockx24 #UTK #Ethereum",0,0,FakerNajjar,26,1511846677434580998
356,Wed Apr 06 23:21:46 +0000 2022,"22610) Current #Bitcoin Price is $43483 #BTC #Crypto
Indicators Daily:
RSI: 48.1
MA(20): 44620
MA(50): 41748
MA(200): 48240
Bollinger B. lower/upper: 40467/48772

#Ethereum Price is $3201 #ETH
RSI: 52.4
MA(20): 3213
MA(50): 2907
MA(200): 3487
BB: 2784/3642

#VAIOT Price: $0.051",0,0,LivePriceCrypto,348,1511846655997394950
357,Wed Apr 06 23:21:41 +0000 2022,@TheMoonCarl True true true #Bitcoin #BTC,0,1,LensAlarcon,107,1511846636250705926
358,Wed Apr 06 23:21:34 +0000 2022,"@StackChill @SandyBitcoin You can use Bitcoin @TheBTCAdventure , in fact you get 50% off admission price if you pay with #Bitcoin",0,0,EssenceSatoshi,1356,1511846605468622850
359,Wed Apr 06 23:21:30 +0000 2022,Hey #btc how about a pump into the close here. Let‚Äôs keep things looking up!,0,0,CryptoD38958834,129,1511846591098884099
360,Wed Apr 06 23:21:19 +0000 2022,"Rough draft second commandment of #Bitcoin:

Thou shalt not shill.",0,0,Eateator,47,1511846542671593474
361,Wed Apr 06 23:21:16 +0000 2022,"The ETHAX Token is a utility token that can be used for Staking, paying for ETHAX license fees and exchanging for other cryptocurrencies

#Defi #ethax #ethaxcrypto #ethaxtoken #Dex #cryptocurrency #ethereum #BinanceSmartChain #Bitcoin",0,0,AbayoOpeoluwa,1162,1511846530122076161
362,Wed Apr 06 23:21:05 +0000 2022,#BTC is now at $43462.93,0,0,getbitcoinprice,210,1511846483880030213
363,Wed Apr 06 23:20:57 +0000 2022,"ETHAX WALLET is a secure and reliable digital wallet designed to keep all your digital assets safe.

#Defi #ethax #ethaxcrypto #ethaxtoken #Dex #cryptocurrency #ethereum #BinanceSmartChain #Bitcoin",0,0,AbayoOpeoluwa,1162,1511846449809661956
364,Wed Apr 06 23:20:54 +0000 2022,This is a must hold level for #bitcoin bulls ‚öñÔ∏è,0,1,GalaxyTrading_,20380,1511846439416176653
365,Wed Apr 06 23:20:48 +0000 2022,"@TRONSCAN_ORG If you had invested $1000 in any cryptocurrency 1 year ago, it would have been at least $10,000. Well #TRON You have deposited it, your money is only 500$ because justin is the plan of the global game #TRX is a story without a profit margin @justinsuntron #Bitcoin2022 #BTC #ETH",0,0,Kahraman_S_M_T_,1634,1511846414929772548
366,Wed Apr 06 23:20:48 +0000 2022,"Another #Bitcoin Conference, another $BTC dump. ü§®",0,1,KAmstutzTrades,42,1511846414212554758
367,Wed Apr 06 23:20:45 +0000 2022,"22609) Current #Bitcoin Price is $43458 #BTC #Crypto
Indicators Daily:
RSI: 47.9
MA(20): 44618
MA(50): 41748
MA(200): 48240
Bollinger B. lower/upper: 40463/48772

#Ethereum Price is $3200 #ETH
RSI: 52.2
MA(20): 3213
MA(50): 2907
MA(200): 3487
BB: 2784/3642

#VAIOT Price: $0.051",0,0,LivePriceCrypto,348,1511846401193484289
368,Wed Apr 06 23:20:45 +0000 2022,@CrabeCrobe That's cool. Good to put some profit into #BTC as a money market savings account.,0,0,thomastthai,3742,1511846400954277892
369,Wed Apr 06 23:20:33 +0000 2022,"@citizenj17 Who gives a fck about human crisis in San Francisco. Don't you see that opposing #bitcoin in El Salvador is the number 1 priority of elected California officials whose districts are full of homeless Americans?

Too bad San Francisco isn't El Salvador to have all of US attention",0,2,JoseSantaneco7,484,1511846353051086849
370,Wed Apr 06 23:20:30 +0000 2022,@PeterLBrandt Lol.  #BTC is the only way.,0,0,boltdad,112,1511846339323129864
371,Wed Apr 06 23:20:21 +0000 2022,"The $THC from @ThetanArena is now at $0.0126 
üìâ Is down -0.49% compare to 1 hour ago
üìâ And is down -5.165% compare to 1 week ago
 #BTC #ETH #SLP #THC",0,0,GamesCoinsPrice,212,1511846300593102860
372,Wed Apr 06 23:20:13 +0000 2022,The IKONIC company introduced one of the best road maps and has a great idea! I participate in the ICO and all the advice! The company has no competitors in this environment! #IKONIC #CRYPTO #BSC #BINANCE #BITCOIN,0,0,RumiAkhtar1,1839,1511846266333896708
373,Wed Apr 06 23:20:00 +0000 2022,"Top 10 #Cryptocurrency Live Prices: 
(07:20 PM . Apr 06,2022)

#BTC $43474.05
#ETH $3196.99
#BNB $423.94
#DOGE $0.14
#SHIB $0.0000246058
#AXS $54.14
#MANA $2.36
#UNI $10.14
#GM $0.0000260671
#KISHU $0.0000000015

Comments! Which coins would like to be listed?",0,0,StoreFiAi,768,1511846212101677056
374,Wed Apr 06 23:19:58 +0000 2022,@invest_answers #BTC on fire. Thanks for this James üíïüíïüíï,0,1,BrilloGP,787,1511846202853105674
375,Wed Apr 06 23:19:53 +0000 2022,Where my #oilandgas and #Bitcoin bro's in #Qatar ?  How's the cost of living over there?  Transfer in June.,0,0,MecEngMike,68,1511846184255639555
376,Wed Apr 06 23:19:52 +0000 2022,#Bitcoin Bears allows inflation to rob them from future digital monetized energy.,0,1,ValantThor,163,1511846180753489928
377,Wed Apr 06 23:19:47 +0000 2022,@Cryptofalcon_ You can't f**k Bitcoin. Bitcoin f**cks you! #BTC,0,0,KCGroup,353,1511846158683066369
378,Wed Apr 06 23:19:47 +0000 2022,"@TheMoonCarl What is your opinion about the current #Bitcoin state, since its Fear and Greed Index is 55 - NEUTRAL, with price of 43866.805958622145 usd? Our analytical team has done extended research regarding #BTC, but we want to hear your opinion also.",0,0,AltcoinFGI,4946,1511846158301339662
379,Wed Apr 06 23:19:44 +0000 2022,"22608) Current #Bitcoin Price is $43460 #BTC #Crypto
Indicators Daily:
RSI: 47.9
MA(20): 44617
MA(50): 41747
MA(200): 48240
Bollinger B. lower/upper: 40462/48772

#Ethereum Price is $3200 #ETH
RSI: 52.2
MA(20): 3213
MA(50): 2907
MA(200): 3487
BB: 2783/3642

#VAIOT Price: $0.052",0,0,LivePriceCrypto,348,1511846146372780035
380,Wed Apr 06 23:19:38 +0000 2022,"@DocumentingBTC Global Adoption..

Seems like the next logical step.
Get yourself .21 #BTC asap",0,0,LeanLeaderr,12,1511846122293186566
381,Wed Apr 06 23:19:36 +0000 2022,Current #Bitcoin Price is $43474 #BTC #Crypto,0,0,IAmBitcoinBot,888,1511846113661186049
382,Wed Apr 06 23:19:33 +0000 2022,@ShibInformer @pandagirltoken #pandagirl #nft #nftart #giveaway #BTC  #ADA #ETH panda girl to the moon after minit nft 29.04,0,0,rot99991563,11,1511846099899887620
383,Wed Apr 06 23:19:18 +0000 2022,It indicates big dumps in Apirl #Bitcoin,0,0,elleryCrypto,72,1511846036490567680
384,Wed Apr 06 23:18:53 +0000 2022,@moochfounder Just wondering what the atmosphere I've there was like (Atmosphere of fulfillment) #BITCOIN,0,0,CryptoFAnalyst,343,1511845932211523595
385,Wed Apr 06 23:18:52 +0000 2022,"@elonmusk joins the board of @twitter and #bitcoin starts *crashing* 

Wow.. I always knew Twitter was toxic, but this is next-level.",0,0,andrew_thaler,2829,1511845927279263748
386,Wed Apr 06 23:18:51 +0000 2022,"This is the first time ever where I have actually caught the dip. Everytime I normally buy, in all my years of being a bitcoiner, the price normally either goes up when I‚Äôm buying or dips the next day. The stars have finally aligned for me üòÇ üôèüèº. #bitcoin",0,2,BitcoinResh,960,1511845924615688196
387,Wed Apr 06 23:18:48 +0000 2022,"#Seasonal Tokens #CryptoMining #Cyclicallnvesting #BTC
is a very interesting, could you please please be more specific as so how someone could use a new case and deploy it using the tokens. Could you give us an example.",0,1,MDForid34513877,2195,1511845910367535104
388,Wed Apr 06 23:18:47 +0000 2022,@CashApp Sushi please $bobwilliams34 #cashappbtcweek #bitcoin üç±,0,2,bobbydiaco,198,1511845905925914625
389,Wed Apr 06 23:18:46 +0000 2022,"#btc hit its support line today, do you think that was the bottom??",0,0,Jingsi31114082,8,1511845902121521156
390,Wed Apr 06 23:18:43 +0000 2022,"22607) Current #Bitcoin Price is $43452 #BTC #Crypto
Indicators Daily:
RSI: 47.9
MA(20): 44617
MA(50): 41747
MA(200): 48240
Bollinger B. lower/upper: 40462/48772

#Ethereum Price is $3198 #ETH
RSI: 52.1
MA(20): 3212
MA(50): 2907
MA(200): 3487
BB: 2783/3641

#VAIOT Price: $0.052",0,0,LivePriceCrypto,348,1511845891593973770
391,Wed Apr 06 23:18:30 +0000 2022,#Bitcoin is still only worth $0.04 million. Don‚Äôt forget that.,0,1,cryptonomistgr,3677,1511845835780280332
392,Wed Apr 06 23:18:30 +0000 2022,@elonmusk We need a launchpad here in twitter we are all trust twitter if it‚Äôs about lunching a new real crypto projects #BTC,0,0,AMFDev,387,1511845833548967938
393,Wed Apr 06 23:18:19 +0000 2022,"@menlobear Take away the ability of humans to determine your money‚Äôs value 

#bitcoin",0,1,DWhitmanBTC,6052,1511845790737702923
394,Wed Apr 06 23:18:14 +0000 2022,@Scooter17377341 This is fantastic! Get that #Bitcoin !,0,0,PBSwilley,441,1511845768147132426
395,Wed Apr 06 23:18:08 +0000 2022,#BTC has fallen by -7.81% in the last week. The price is currently $43442.91.,0,0,BitCoinAlertBot,362,1511845744034123783
396,Wed Apr 06 23:18:07 +0000 2022,#Bitcoin is the best way to preserve your wealth.,34,190,TheMoonCarl,1038611,1511845738124300296
397,Wed Apr 06 23:17:59 +0000 2022,"@TheRealPlanC Very true‚Ä¶ we just won‚Äôt be able to read it ‚Ä¶üòÇ but it‚Äôs ok we won‚Äôt wait too long‚Ä¶ I‚Äôll hold my sats until #Bitcoin worth a M.
As it now‚Ä¶ I just gonna go back to work",0,2,Carlitos5mg,160,1511845704259436546
398,Wed Apr 06 23:17:57 +0000 2022,"@pnndwnetwork Very good Hope it will be successful.
@mushfiqur15 
@Mustafiz90 
@TamimOfficial28 
@Mahmudullah30
@Cristiano
#Airdrops #Airdrops #cryptocurrency
#BNB #Bitcoin #BSC",0,0,azlinaaylin,7,1511845698257383431
399,Wed Apr 06 23:17:56 +0000 2022,"I'd like to know your opinion on $BTC #bitcoin

Going to 30k or 50k??? #crypto #ETH",0,0,Thora81086000,2,1511845691747885056
400,Wed Apr 06 23:17:43 +0000 2022,"22606) Current #Bitcoin Price is $43435 #BTC #Crypto
Indicators Daily:
RSI: 47.7
MA(20): 44615
MA(50): 41746
MA(200): 48239
Bollinger B. lower/upper: 40457/48773

#Ethereum Price is $3197 #ETH
RSI: 52.0
MA(20): 3212
MA(50): 2906
MA(200): 3487
BB: 2783/3641

#VAIOT Price: $0.052",0,0,LivePriceCrypto,348,1511845636865499136
401,Wed Apr 06 23:17:38 +0000 2022,"Delegating zennies &gt; storing sats &gt; LP &gt; trading &gt; trading with borrowed money  
#theAliensKnow #ZNN #BTC",0,0,crypto_culture_,2004,1511845616527237122
402,Wed Apr 06 23:17:30 +0000 2022,"@TRONSCAN_ORG If you had invested $1000 in any cryptocurrency 1 year ago, it would have been at least $10,000. Well #TRON You have deposited it, your money is only 500$ because justin is the plan of the global game #TRX is a story without a profit margin @justinsuntron #Bitcoin2022 #BTC #ETH",0,0,Kahraman_S_M_T_,1634,1511845584134680584
403,Wed Apr 06 23:17:29 +0000 2022,üí∏ Earn free #BTC and multiply your crypto with @betfury BOXes üì¶ Enjoy the easy way to get cryptocurrency! Real rewards every 20 min üí•,0,0,DimBitArt,0,1511845579323842561
404,Wed Apr 06 23:17:19 +0000 2022,Timeline 100% bearposting and cope... relief bounce of hope then nuke? #btc,0,0,Jawwn_NFT,2007,1511845539024977923
405,Wed Apr 06 23:17:19 +0000 2022,"#ICP family. The market is taking everyone,  including, #InternetComputer, down. Get ready to load up as, with all coming, #ICP is gonna fly üöÄüöÄüöÄüöÄüöÄüöÄüöÄüöÄüöÄüöÄüöÄüöÄ

@dfinity @doge @tking #btc @ethereum #bitcoin @solana @Atoms #eth @avalancheavax #xrp @avalancheavax @Polkadot",0,0,TigerKing100x,784,1511845538517458950
406,Wed Apr 06 23:17:15 +0000 2022,"I‚Äôll admit it, I got stopped out a few times trying to catch the falling knife on these ALTS.  

Capital preservation is üîë so putting myself in time out for now.

#bitcoin $BTC",0,2,WaveRiderCrypto,470,1511845519563362307
407,Wed Apr 06 23:17:12 +0000 2022,"#hotfriescoin #Stable #ProgressiveCoin #onlyup  #bitcoin #defi #Crypto #BSCGem #BSCGemsAlert #web3  One of the most reliable projects for your investments! A new and very promising idea, a professional team ready to make bold decisions is what will bring success to this project.",0,0,nishachowd,7590,1511845508654198785
408,Wed Apr 06 23:17:11 +0000 2022,#Bitcoin not even a bounce to exit. Straight down. Bulls? Where u at?,0,0,realRicardoRuiz,57,1511845501896953865
409,Wed Apr 06 23:17:10 +0000 2022,"@TheRealPlanC Future Headline:

""While the world went to shit ... #Bitcoin went to the moon""",0,33,KevinSvenson_,101291,1511845500537954307
410,Wed Apr 06 23:17:09 +0000 2022,"@AirdropStario Nice project!

@LeonardoReyesC 
@willadancordero 
@vmtb99 
@ezequiel_681_ 
@GabrielaBoldri9 

#cryptocurrency #Airdrop #BSC #Bitcoin #USDT #AttackGame #ATTACK #Airdropstario",0,0,elissav_,129,1511845496628953089
411,Wed Apr 06 23:17:07 +0000 2022,"According to Binance staking, #Mdx falling the most from All time high is an incredible percent of 97.47%.
@cz_binance
#Binance 
#CZBinance 
#Btc",0,0,_kripto33,13,1511845485748830218
412,Wed Apr 06 23:17:02 +0000 2022,"I finally have a home something I lost closed to 4yrs now.¬† This is not just ordinary abode but a spiritual place where all my silence dot connects. I will always value and appreciate Maami house. 

#cryptocurrency #NFTCommunity @binance #bitcoin",0,0,dolakell,104,1511845466840969217
413,Wed Apr 06 23:17:02 +0000 2022,"HoboNickels is #followback its followers 
 üí® üëÄ  #Bitcoin #coin",0,0,HoboNickels_HBN,1888,1511845465238781959
414,Wed Apr 06 23:16:57 +0000 2022,"#btc #Dogecoins #Eth #coinpump #USDT #cryptopump are the future. We are going to pump the next crypto soon. announcement on telegram, channel link in desc",0,0,DoggySins,132,1511845446439874571
415,Wed Apr 06 23:16:44 +0000 2022,"@eemi666 At first, there was #Bitcoin. 

Bitcoin hard forked to prevent unlimited supply

Then copies of BTC code (LTC/Namecoin/Feathercoin/Doge)

BTC L2 tokens (#nft) created (Counterparty/Namecoin/Omni)

BTC DAO made

BTC soft forked to SEGWIT &amp; hard forked to BCH, Bitcoin Gold, ECT",0,2,NODEfather,4923,1511845389321715718
416,Wed Apr 06 23:16:42 +0000 2022,"22605) Current #Bitcoin Price is $43382 #BTC #Crypto
Indicators Daily:
RSI: 47.7
MA(20): 44615
MA(50): 41746
MA(200): 48239
Bollinger B. lower/upper: 40457/48773

#Ethereum Price is $3191 #ETH
RSI: 51.9
MA(20): 3212
MA(50): 2906
MA(200): 3487
BB: 2783/3641

#VAIOT Price: $0.052",0,0,LivePriceCrypto,348,1511845381235253253
417,Wed Apr 06 23:16:38 +0000 2022,"@trondao If you had invested $1000 in any cryptocurrency 1 year ago, it would have been at least $10,000. Well #TRON You have deposited it, your money is only 500$ because justin is the plan of the global game #TRX is a story without a profit margin @justinsuntron #Bitcoin2022 #BTC #ETH",0,0,Kahraman_S_M_T_,1634,1511845367486238721
418,Wed Apr 06 23:16:28 +0000 2022,"Welcome to KINEKT! The Social Token Platform that rewards for distributing positivity to other members through our #cryptocurrency KREDITS! Follow us and join our telegram for updates! This is just the beginning of an amazing journey! Retweet, Share, and Like! #BTC #ETH #SOL",0,0,kinektsocial,4,1511845323022344196
419,Wed Apr 06 23:16:25 +0000 2022,@rovercrc Unfortunaly #BTC will continue being seen as another tech company until mass adoption.,0,0,darkfalcon50,31,1511845309265104897
420,Wed Apr 06 23:16:19 +0000 2022,"They will not leave Russian prisoners alive, Mamuka, the head of the Georgian mercenaries in Ukraine, said in a statement. Georgian mercenaries torture Russian prisoners of war.#BTC #Bucha #UCL",0,0,lengfen85506049,127,1511845283860262914
421,Wed Apr 06 23:16:17 +0000 2022,"@TheCryptoLark What do you think about the current #Bitcoin state, since its Fear and Greed Index is 55 - NEUTRAL at the moment, with price of 43866.164338321475 usd? Our analytical team has done a detailed analysis regarding #BTC, but we want to hear your opinion too.",0,0,AltcoinFGI,4946,1511845277854056451
422,Wed Apr 06 23:16:09 +0000 2022,"#BAND #Binance #PUMP

üìàAlert Currency PUMPüí∏üí∏üí∏
Crypto Coin symbol: $BAND #BAND

Do you #hodl any #BTC or these #AltCoins?
#Cryptocurrency 92266557",0,0,AstrobluBot,256,1511845242336653317
423,Wed Apr 06 23:16:01 +0000 2022,"#btc 
If 43.1k Zone Holds M Expecting A relief Rally in Asian Session",0,12,VCCrypto22,2115,1511845209885138948
424,Wed Apr 06 23:15:49 +0000 2022,@GetYaFaceMelted @Pentosh1 @saylor Absolutely using the company to hype the price and making billions as a person. He is untouchable if the company collapse with the #Bitcoin burst. People follow him like he is a priest. People should know by now most priests are fraudsters.,0,0,Cryptomato10,39,1511845158412853260
425,Wed Apr 06 23:15:46 +0000 2022,"I'd like to know your opinion on $BTC #bitcoin

Going to 30k or 50k??? #ETH #crypto #nft",0,0,Tessa63923653,1,1511845148182958082
426,Wed Apr 06 23:15:46 +0000 2022,#EverRise $RISE #EverRiseV3 #EverRiseEDU #DeFi #Crypto #Cryptocurrency #Fantom #BTC #Rise #MultiChain #NFT_Stake #MultiCh‚Ä¶,0,0,JamieHo58713301,3,1511845146782019587
427,Wed Apr 06 23:15:41 +0000 2022,"22604) Current #Bitcoin Price is $43372 #BTC #Crypto
Indicators Daily:
RSI: 47.6
MA(20): 44613
MA(50): 41746
MA(200): 48239
Bollinger B. lower/upper: 40454/48773

#Ethereum Price is $3191 #ETH
RSI: 51.8
MA(20): 3212
MA(50): 2906
MA(200): 3487
BB: 2783/3641

#VAIOT Price: $0.051",0,1,LivePriceCrypto,348,1511845126548643853
428,Wed Apr 06 23:15:38 +0000 2022,@EthaxCrypto Trusted project. Their road way map is very advanced. This Project will honorly successfull. Large number of cryoto lover join the project. I like the project #DeFi #ethax #ethaxcrypto #ethaxtoken #DEX #crytocurrency #Ethereum #BinanceSmartChain #Bitcoin,0,0,Soniya69115626,2368,1511845113626267648
429,Wed Apr 06 23:15:37 +0000 2022,#Bitcoin is my daily tweet,0,0,Anselm38,33,1511845110916464643
430,Wed Apr 06 23:15:35 +0000 2022,"@twobitidiot @GaryGensler Somebody has got to pick up this story‚Ä¶ it makes Enron and Madolf look like dime store thieves. 
@netflix 
#BTC
#enron lol
@GaryGensler",0,0,SassyOnSundays,11,1511845102666215431
431,Wed Apr 06 23:15:29 +0000 2022,"@Cointelegraph Our analytical team has done a detailed analysis regarding #BTC, and its Fear and Greed Index is 55 - NEUTRAL at the moment with price of 43866.274737340778 usd, so what do you think about the current #Bitcoin state?",0,0,AltcoinFGI,4946,1511845075550146561
432,Wed Apr 06 23:15:25 +0000 2022,To me it looks like institutions are trying to peg #bitcoin to the competitive value of the dollar as much as possible,1,11,DWhitmanBTC,6052,1511845057892073478
433,Wed Apr 06 23:15:24 +0000 2022,That was it #bitcoin,0,0,livenletlive999,982,1511845053601251329
434,Wed Apr 06 23:15:24 +0000 2022,"Cryptocurrency Market | Coin Prices [15m]
üîî #Bitcoin Price: $43382.64
üîî #Ethereum Price: $3191.65
üîî #Bnb Price: $423.2
üîî #Shib Price: $0.00002457
üîî #Doge Price: $0.1438
üîî #Avax Price: $84.05",0,0,coinactual,4926,1511845052997373953
435,Wed Apr 06 23:15:19 +0000 2022,"@AttackGame12 Nice project!

@LeonardoReyesC 
@willadancordero 
@vmtb99 
@ezequiel_681_ 
@GabrielaBoldri9 

#cryptocurrency #Airdrop #BSC #Bitcoin #USDT #AttackGame #ATTACK #Airdropstario",0,0,elissav_,129,1511845033367986181
436,Wed Apr 06 23:15:17 +0000 2022,"@ApeCoin_Airdrop Great project

#BTC,  #ETH
0xfE70671071C99E01F39959FEe45758b3bE4ac6c2",0,0,ChrisRo37341289,5,1511845026044727307
437,Wed Apr 06 23:15:15 +0000 2022,"üöÄüöÄüöÄ $1,398,441 BTCUSDT LONGED @$43,380.00 on #Binance (23:15:14 UTC) #BTC #cryptocurrency",0,0,ExchangeWhales,2717,1511845015269609472
438,Wed Apr 06 23:15:11 +0000 2022,@kucoincom @pandagirltoken #pandagirl #nft #nftart #giveaway #BTC #ADA #ETH panda girl will popularity after nft minit 29.04,0,0,rot99991563,11,1511845002325942275
439,Wed Apr 06 23:15:10 +0000 2022,"@DisCas_DAO I am really happy and proud to be a part of this project,This project is a world class and standard modern project,Theoctaverse'The project is moving
#bitcoin #bitcoinindonesia #ido #bitcoinnews #investment #investasi #investor #investingtips #diskusi #discus #medsos",0,0,dekleni8,6453,1511844995728568321
440,Wed Apr 06 23:15:02 +0000 2022,"Follow us to receive Premium Signals from Top Paid Channels for FREE!!
#Ethereum  #ETH #Celo  #CELO #Bitcoin  #BTC #Polkacity  #POLC #Dogecoin  #DOGE",0,0,TopPaidSignals,368,1511844963486687237
441,Wed Apr 06 23:15:02 +0000 2022,"#BTC $43463  $BTC
#ETH $3201.57  $Eth
#BNB $424.03  $Bnb",0,0,Pricecrypt0,49,1511844962060668929
442,Wed Apr 06 23:15:00 +0000 2022,"Top 10 #Cryptocurrency Live Prices: 
(07:15 PM . Apr 06,2022)

#BTC $43495.16
#ETH $3200.57
#BNB $424.01
#DOGE $0.14
#SHIB $0.0000246248
#AXS $54.17
#MANA $2.37
#UNI $10.15
#GM $0.0000260624
#KISHU $0.0000000015

Comments! Which coins would like to be listed?",0,0,StoreFiAi,768,1511844953521074186
443,Wed Apr 06 23:14:57 +0000 2022,"I‚Äôve been liquidated, I‚Äôve been rugged, I‚Äôve been dirt broke. Nothing hurts more than regret though, long one more time boys. #bitcoin",0,2,TheMidas,901,1511844943010185219
444,Wed Apr 06 23:14:52 +0000 2022,"@AirdropDet good project.@Ding_Li_2019
@0xAzzz  @adugege1
#Airdrops #AwakeInTheGalactic #Bitcoin",0,0,Andy63928198,5,1511844922516652032
445,Wed Apr 06 23:14:52 +0000 2022,"Am I the only one having fun, we are all witnessing and a part of history. #Bitcoin 

Imagine what will be written about these years in another 100 years. #Crypto",6,150,TheRealPlanC,105027,1511844920511942658
446,Wed Apr 06 23:14:50 +0000 2022,"I sold 10k #btc #bitcoin while @saylor was ‚Äúbuying‚Äù for his company
#bitcoinmiami2022 #Bitcoin2022",0,0,1stknightking,100,1511844913129873413
447,Wed Apr 06 23:14:44 +0000 2022,@AltcoinSara Bring the orange #bitcoin vibes and good luck at your you Sis,0,0,CryptoIdolic21,1264,1511844885686480900
448,Wed Apr 06 23:14:40 +0000 2022,"22603) Current #Bitcoin Price is $43428 #BTC #Crypto
Indicators Daily:
RSI: 47.8
MA(20): 44616
MA(50): 41747
MA(200): 48240
Bollinger B. lower/upper: 40459/48773

#Ethereum Price is $3196 #ETH
RSI: 51.9
MA(20): 3212
MA(50): 2906
MA(200): 3487
BB: 2783/3641

#VAIOT Price: $0.051",0,0,LivePriceCrypto,348,1511844871455363078
449,Wed Apr 06 23:14:36 +0000 2022,"5-10% pullback expected until weekend. 

$btc $shib $doge $xyo $coti $ach $mana $sol $link $crypto $jasmy $lrc #btc #shib #doge #xyo #coti #ach #mana #sol #crypto #staking",0,0,GamblingWhale,1062,1511844853952524301
450,Wed Apr 06 23:14:36 +0000 2022,Current #Bitcoin Price is $43495 #BTC #Crypto,0,0,IAmBitcoinBot,888,1511844853616762885
451,Wed Apr 06 23:14:17 +0000 2022,"Hey @DocumentingBTC @BTC_Archive @BitcoinMagazine  this is actual üí•BREAKING news. One of the largest asset managers in the world is getting in to #Bitcoin

My friend @TheCryptoLark will tweet about this in 2-3 months guaranteed.",1,12,mikealfred,80843,1511844772008189955
452,Wed Apr 06 23:14:08 +0000 2022,"#FLM #Binance #PUMP

üìàAlert Currency PUMPüí∏üí∏üí∏
Crypto Coin symbol: $FLM #FLM

Do you #hodl any #BTC or these #AltCoins?
#Cryptocurrency 83105968",0,1,AstrobluBot,256,1511844736130293765
453,Wed Apr 06 23:14:06 +0000 2022,@Cointelegraph #BTC #France just make it legal tender. Don't make it too complicated ü§°ü§°ü§°üî•üî•üî•üíïüíïüíï,0,1,BrilloGP,787,1511844729675165696
454,Wed Apr 06 23:14:05 +0000 2022,Buy the dip #icp #btc,0,1,huangying1601,22,1511844723111071748
455,Wed Apr 06 23:14:01 +0000 2022,The Thank God for #Bitcoin conference was more Bitcoin-only then the #bitcoinmiami2022 conference LOL. Well done @jmbushwrites and thanks for trying to get me there @jimmysong Lord willing I'll be there next year.,2,5,pastorcoin,1917,1511844707088826368
456,Wed Apr 06 23:13:54 +0000 2022,@EthaxCrypto I encourage everyone out here to have a look at it. I think these guys evidently will succeed! #DeFi #ethax #ethaxcrypto #ethaxtoken #DEX #crytocurrency #Ethereum #BinanceSmartChain #Bitcoin,0,0,Soniya69115626,2368,1511844678798553088
457,Wed Apr 06 23:13:54 +0000 2022,"Yep, Bitcorn is fucked. Enjoy the next 18 month bear market lol. #btc $btc",0,0,VHashing,65,1511844676751437824
458,Wed Apr 06 23:13:42 +0000 2022,"No maybe yes
With the cards open I think are looking at a week in which the #bitcoin network is going to have high transaction volume leading to #bitcoinmiami2022 
Who still hasn't getüëÄ",0,1,KonlyD,31,1511844628147888131
459,Wed Apr 06 23:13:39 +0000 2022,"22602) Current #Bitcoin Price is $43399 #BTC #Crypto
Indicators Daily:
RSI: 47.7
MA(20): 44614
MA(50): 41746
MA(200): 48239
Bollinger B. lower/upper: 40456/48773

#Ethereum Price is $3194 #ETH
RSI: 52.0
MA(20): 3212
MA(50): 2906
MA(200): 3487
BB: 2783/3641

#VAIOT Price: $0.053",0,0,LivePriceCrypto,348,1511844616651354118
460,Wed Apr 06 23:13:35 +0000 2022,"@iLLyCrypto @Hotbit_news @shift_token GET IN NOW! AMAZING PUMP INCOMING! @ShiftToken_  
#1000x  #cryptocurrency #crypto #Bitcoin #ETH",0,0,shift50339121,4,1511844597999501312
461,Wed Apr 06 23:13:25 +0000 2022,"Terra just about another $230m #Bitcoin
#BTC 
#Bitcoin2022",1,1,BishopCoinTrade,183,1511844555129245698
462,Wed Apr 06 23:13:24 +0000 2022,"@Cointelegraph What do you think about #Bitcoin state at the moment, because its Fear and Greed index is 55 - NEUTRAL with price of 43866.874247795598 usd? Our analytical team has done detailed #BTC research, but we want to hear your opinion too.",0,0,AltcoinFGI,4946,1511844553711669249
463,Wed Apr 06 23:13:24 +0000 2022,"@AirdropRampage Good
#BTC",0,0,ComTaoujih,2,1511844550146408457
464,Wed Apr 06 23:13:23 +0000 2022,"OVERSOLD  
 - BTC/USDT
 Price:43403.33000 
 Bollinger Bands ALERTS FifteenMinutes 
 Bollinger Bands Calculation: -5.92816
 #BTC #ALPINEBUSD #Bitcoin #RSƒ∞ #Bollinger -It is not investment advice. You can visit our profile for your own alarms. YTD. 2:13:06 AM",0,0,Cryptoinfo_AI,71,1511844549261418503
465,Wed Apr 06 23:13:02 +0000 2022,"@carsonturner @BoredApeYC @FernbankMuseum Crypto millionaires will be the greatest philanthropists the world have ever seen.
We know what it's like to have nothing. I'm still working a minimum wage job in discount store despite gaining heavily from crypto. Follow @bernie_Doranfx for guide on #Btc¬†earning tips,&amp; tweets",0,0,Son_of_mannn,215,1511844461076172805
466,Wed Apr 06 23:13:00 +0000 2022,Love my @BombMoneyBSC investment! LFG!!! üöÄüöÄüöÄüöÄ it‚Äôs pumping like crazy! $crypto #btc #crypto #investing.  I‚Äôm buying are you???,1,2,KryptoShogun,22,1511844450401669121
467,Wed Apr 06 23:12:58 +0000 2022,"@LeiMai_LeMaow @BoredApeYC Crypto millionaires will be the greatest philanthropists the world have ever seen.
We know what it's like to have nothing. I'm still working a minimum wage job in discount store despite gaining heavily from crypto. Follow @bernie_Doranfx for guide on #Btc¬†earning tips,&amp; tweets",0,0,Son_of_mannn,215,1511844444735250437
468,Wed Apr 06 23:12:58 +0000 2022,"@MetaWorld_Game With Pleasure, This is one of that best project for my opinion 

Discord : 2019tarikul#4747

@hasan807219
 
@tarikul11124
 
@sumon58

#Airdrop #Giveaway #Airdrops #Bitcoin #MetaWorld #AirdropDet #Crypto #Blockchain #MetaWorld",0,0,2019tarikul,4,1511844441732300800
469,Wed Apr 06 23:12:55 +0000 2022,"@NASA Crypto millionaires will be the greatest philanthropists the world have ever seen.
We know what it's like to have nothing. I'm still working a minimum wage job in discount store despite gaining heavily from crypto. Follow @bernie_Doranfx for guide on #Btc¬†earning tips,&amp; tweets",0,0,Son_of_mannn,215,1511844428717117440
470,Wed Apr 06 23:12:51 +0000 2022,"@BTCTN Crypto millionaires will be the greatest philanthropists the world have ever seen.
We know what it's like to have nothing. I'm still working a minimum wage job in discount store despite gaining heavily from crypto. Follow @bernie_Doranfx for guide on #Btc¬†earning tips,&amp; tweets",0,0,Son_of_mannn,215,1511844414297198597
471,Wed Apr 06 23:12:50 +0000 2022,"@galactic_awake good project.@Ding_Li_2019
@adugege1  @aineavagirls
#Airdrops #Bitcoin #AwakeInTheGalactic #AirdropDet #Crypto #Blockchain",0,0,Andy63928198,5,1511844407380623369
472,Wed Apr 06 23:12:48 +0000 2022,"@galactic_awake very good and strong project.I pray that you will move forward towards successü•≥

@Fahim5381
@johny8978
@jayv6788
#Airdrops #Bitcoin #AwakeInTheGalactic #AirdropDet #Crypto #Blockchain",0,0,Naymul53,156,1511844400523259904
473,Wed Apr 06 23:12:47 +0000 2022,"@AuroryProject @TheCryptoLark @opensea Crypto millionaires will be the greatest philanthropists the world have ever seen.
We know what it's like to have nothing. I'm still working a minimum wage job in discount store despite gaining heavily from crypto. Follow @bernie_Doranfx for guide on #Btc¬†earning tips,&amp; tweets",0,0,Son_of_mannn,215,1511844397935169541
474,Wed Apr 06 23:12:45 +0000 2022,Haven‚Äôt looked at prices since lunch. Drop a GIF of what I should expect before I look. #btc,0,0,LunarBeaches,352,1511844390167269381
475,Wed Apr 06 23:12:44 +0000 2022,"@boredkennelbot @BoredApeYC Crypto millionaires will be the greatest philanthropists the world have ever seen.
We know what it's like to have nothing. I'm still working a minimum wage job in discount store despite gaining heavily from crypto. Follow @bernie_Doranfx for guide on #Btc¬†earning tips,&amp; tweets",0,0,Son_of_mannn,215,1511844382974038035
476,Wed Apr 06 23:12:40 +0000 2022,"@AltcoinDailyio @udiWertheimer Crypto millionaires will be the greatest philanthropists the world have ever seen.
We know what it's like to have nothing. I'm still working a minimum wage job in discount store despite gaining heavily from crypto. Follow @bernie_Doranfx for guide on #Btc¬†earning tips,&amp; tweets",0,1,Son_of_mannn,215,1511844365475495937
477,Wed Apr 06 23:12:39 +0000 2022,"22601) Current #Bitcoin Price is $43506 #BTC #Crypto
Indicators Daily:
RSI: 47.7
MA(20): 44614
MA(50): 41746
MA(200): 48239
Bollinger B. lower/upper: 40456/48773

#Ethereum Price is $3202 #ETH
RSI: 51.9
MA(20): 3212
MA(50): 2906
MA(200): 3487
BB: 2783/3641

#VAIOT Price: $0.052",0,0,LivePriceCrypto,348,1511844361935458309
478,Wed Apr 06 23:12:32 +0000 2022,Dump it lower #BTC,0,0,pinkdawn__,578,1511844332852375553
479,Wed Apr 06 23:12:22 +0000 2022,Good night #Bitcoin'er,0,1,UgwuMalachyChi2,99,1511844291462717441
480,Wed Apr 06 23:12:20 +0000 2022,We filled the market instability. Here we goüöÄüöÄüöÄüöÄ #BTC #BNB #ETH,0,0,holdthiscrypto,117,1511844282864660480
481,Wed Apr 06 23:12:10 +0000 2022,"What's up with these tanking Bitcoin prices? Isn't there some Bitcoin circle jerk conference going on in Miami? 

Maybe this is a reality check for these #BTC maxis",0,0,olymp1a_,96,1511844240933928967
482,Wed Apr 06 23:12:10 +0000 2022,"There's 900 BTC in potential liquidations for longs on the way down to 42k. (Binance)

That's ~$40,000,000 of overleveraged bulls.

#Bitcoin #BTC $BTC",5,14,CryptoSultan21,4039,1511844239696707588
483,Wed Apr 06 23:11:52 +0000 2022,"""#Bitcoin  is software, is #property  and maybe is a #currency - you will want #regulations: just sit back and watch #trillions coming in""
Definitely making a #bullish case for the this #technology and its role in the future of #finance 
@TheBitcoinConf #bitcoinmiami2022",0,0,FilandroMi,37,1511844165734207491
484,Wed Apr 06 23:11:40 +0000 2022,"How you living ü•Ç? 

#NFTCommunity #NFTdrops #OpenSeaNFT #ETH #BTC #Crypto #NFT",2,9,NoCapitalLtd,1464,1511844114215624706
485,Wed Apr 06 23:11:39 +0000 2022,"@AltcoinDailyio What is your opinion about the current #Bitcoin state, since its Fear and Greed Index is 55 - NEUTRAL, with price of 43866.447116212968 usd? Our analytical team has done extended research regarding #BTC, but we want to hear your opinion also.",0,1,AltcoinFGI,4946,1511844112370184200
486,Wed Apr 06 23:11:39 +0000 2022,"Unemployment reaching historic lows, GDP at historic highs, and US deficit is shrinking. Thank you Joe Biden. Also, thank you for saying you won‚Äôt ban #bitcoin. Now just legalize weed and you‚Äôve got it in the bag my man.",0,0,00713bd,31,1511844110646267906
487,Wed Apr 06 23:11:38 +0000 2022,"22600) Current #Bitcoin Price is $43537 #BTC #Crypto
Indicators Daily:
RSI: 48.0
MA(20): 44619
MA(50): 41748
MA(200): 48240
Bollinger B. lower/upper: 40465/48772

#Ethereum Price is $3203 #ETH
RSI: 52.1
MA(20): 3212
MA(50): 2907
MA(200): 3487
BB: 2783/3642

#VAIOT Price: $0.052",0,0,LivePriceCrypto,348,1511844107076968451
488,Wed Apr 06 23:11:25 +0000 2022,"Michael Saylor from Micro Strategy and Quando Rondo from Terra are making history. Never again will you see people or entities able to buy thousands of #bitcoin at once. In the future, thousands of bitcoins at hundreds of thousands of dollars per, will be impossible to achieve!",0,1,CoachP_BTC,17,1511844053092077581
489,Wed Apr 06 23:11:23 +0000 2022,#Ilovebitcoin because people are never surprised to learn that BTC has value outside of the internet #bitcoin,0,0,PlattsburghBTC,3477,1511844044736974851
490,Wed Apr 06 23:11:11 +0000 2022,BREAKING: üèà Tennessee Titians will accept #Bitcoin¬† as a payment method.,1,2,alice_cryptol,656,1511843995525083137
491,Wed Apr 06 23:11:11 +0000 2022,"[‚≠êÔ∏èüü° NEW LISTING‚≠êÔ∏è]
[BAL] BEING LISTED IN COINGECKO [NEW-TRENDING-TOP-3]

More Info in bio

$AU #Bitcoin #AutoCrypto #crypto #cryptocurrecy #BNB #ToTheMoon #BSC #BSCGem #GEM #altcoin #token",0,0,AutoCrypto_bot,1034,1511843994753548293
492,Wed Apr 06 23:10:56 +0000 2022,@timothysykes I really needed this motivation for my trading journey. #btc,0,0,iamfaisee,6180,1511843930207395846
493,Wed Apr 06 23:10:53 +0000 2022,@fulmolightning @TheBitcoinConf He is balls deep in #Bitcoin,0,0,cenan_ku,252,1511843917901217795
494,Wed Apr 06 23:10:38 +0000 2022,"Cryptocurrency is not just about making a bunch of money. It‚Äôs also about protecting your wealth you‚Äôve earned! Don‚Äôt let it get stripped from you from inflation! Get the word out! Like, retweet, &amp; follow #XRPCommunity #XRP #Bitcoin #ETH #Billionaires",0,0,cryptowiseguide,11,1511843857079615495
495,Wed Apr 06 23:10:37 +0000 2022,"22599) Current #Bitcoin Price is $43467 #BTC #Crypto
Indicators Daily:
RSI: 48.1
MA(20): 44619
MA(50): 41748
MA(200): 48240
Bollinger B. lower/upper: 40467/48772

#Ethereum Price is $3197 #ETH
RSI: 52.1
MA(20): 3212
MA(50): 2907
MA(200): 3487
BB: 2783/3642

#VAIOT Price: $0.051",0,0,LivePriceCrypto,348,1511843852285526021
496,Wed Apr 06 23:10:31 +0000 2022,"The year is 2032:
#bitcoin = $1,100,000
#Ethereum= $250,000
#dogecoin= $30.00
#shib= $2.50

...Did you #hodl?",1,2,BeefDrew_,511,1511843824347328514
497,Wed Apr 06 23:10:28 +0000 2022,"@altcryptocom My biggest bag rn is #BTC, it's been like that ever since I got into the #cryptoverse ü•∞

Lately, I've been reading a lot about @3aircrypto, and I think it's gonna be my next long-term bet.

Solid fundamentals? ‚úÖ
Investing in emerging economies? ‚úÖ
Empowering African people? ‚úÖ",0,0,HODL_Joaquim,33,1511843813299527680
498,Wed Apr 06 23:10:22 +0000 2022,@ddwchen shouldve just hodl #bitcoin,0,1,theyoungcrews,2759,1511843786665738250
499,Wed Apr 06 23:10:21 +0000 2022,"@BitMartExchange @ArtradeApp Best project ever,
happy to take participate in such huge project. You guys are very hard working and I am pretty sure you will reach to the Moon very soon. ‚ù§

 #Giveaways  #Airdrop #Airdrops #BTC

 @5789 
@GHj 
@JII",0,0,gbjmam1,47,1511843784421568517
